2
Lattice="20.0 0.0 0.0 0.0 20.0 0.0 0.0 0.0 20.0" Properties=species:S:1:pos:R:3:quaternions:R:4:c_diameter\[1\]:R:1:c_diameter\[2\]:R:1:c_diameter\[3\]:R:1:angles:R:1:forces:R:3:torques:R:3 separation_distance=1.0 energy=-0.6769451492577782 pbc="F F F"
X       10.00000000      10.00000000      10.00000000       1.00000000       0.00000000       0.00000000       0.00000000       1.00000000       2.00000000       1.00000000       0.00000000      -0.43683936      -0.21145063       0.00000000      -0.00000000      -0.00000000       0.10416349
X       11.00000000      10.00000000      10.00000000       0.76604444       0.00000000       0.00000000       0.64278761       1.00000000       2.00000000       1.00000000       1.39626340       0.43683936       0.21145063      -0.00000000      -0.00000000      -0.00000000       0.65846936
2
Lattice="20.0 0.0 0.0 0.0 20.0 0.0 0.0 0.0 20.0" Properties=species:S:1:pos:R:3:quaternions:R:4:c_diameter\[1\]:R:1:c_diameter\[2\]:R:1:c_diameter\[3\]:R:1:angles:R:1:forces:R:3:torques:R:3 separation_distance=1.0 energy=-0.6769451492577782 pbc="F F F"
X       10.00000000      10.00000000      10.00000000       1.00000000       0.00000000       0.00000000       0.00000000       1.00000000       2.00000000       1.00000000       0.00000000      -0.43683936       0.21145063       0.00000000      -0.00000000      -0.00000000      -0.10416349
X       11.00000000      10.00000000      10.00000000       0.64278761       0.00000000       0.00000000       0.76604444       1.00000000       2.00000000       1.00000000       1.74532925       0.43683936      -0.21145063      -0.00000000      -0.00000000      -0.00000000      -0.65846936
2
Lattice="20.0 0.0 0.0 0.0 20.0 0.0 0.0 0.0 20.0" Properties=species:S:1:pos:R:3:quaternions:R:4:c_diameter\[1\]:R:1:c_diameter\[2\]:R:1:c_diameter\[3\]:R:1:angles:R:1:forces:R:3:torques:R:3 separation_distance=1.0 energy=-0.8068593120604334 pbc="F F F"
X       10.00000000      10.00000000      10.00000000       0.98480775       0.00000000       0.00000000       0.17364818       1.00000000       2.00000000       1.00000000       0.34906585       4.20988952      -1.82537162       0.00000000      -0.00000000      -0.00000000       0.82702357
X       11.00000000      10.00000000      10.00000000       0.76604444       0.00000000       0.00000000       0.64278761       1.00000000       2.00000000       1.00000000       1.39626340      -4.20988952       1.82537162      -0.00000000      -0.00000000      -0.00000000       3.64412957
2
Lattice="20.0 0.0 0.0 0.0 20.0 0.0 0.0 0.0 20.0" Properties=species:S:1:pos:R:3:quaternions:R:4:c_diameter\[1\]:R:1:c_diameter\[2\]:R:1:c_diameter\[3\]:R:1:angles:R:1:forces:R:3:torques:R:3 separation_distance=1.0 energy=-0.3867742835998551 pbc="F F F"
X       10.00000000      10.00000000      10.00000000       0.93969262       0.00000000       0.00000000       0.34202014       1.00000000       2.00000000       1.00000000       0.69813170      -7.02140972       1.09048710       0.00000000      -0.00000000      -0.00000000      -0.63607082
X       11.00000000      10.00000000      10.00000000       0.64278761       0.00000000       0.00000000       0.76604444       1.00000000       2.00000000       1.00000000       1.74532925       7.02140972      -1.09048710      -0.00000000      -0.00000000      -0.00000000      -0.47889560
2
Lattice="20.0 0.0 0.0 0.0 20.0 0.0 0.0 0.0 20.0" Properties=species:S:1:pos:R:3:quaternions:R:4:c_diameter\[1\]:R:1:c_diameter\[2\]:R:1:c_diameter\[3\]:R:1:angles:R:1:forces:R:3:torques:R:3 separation_distance=1.0 energy=-0.20190362308203008 pbc="F F F"
X       10.00000000      10.00000000      10.00000000       0.86602540       0.00000000       0.00000000       0.50000000       1.00000000       2.00000000       1.00000000       1.04719755      -3.59034381       0.65086755       0.00000000      -0.00000000      -0.00000000      -0.37444374
X       11.00000000      10.00000000      10.00000000       0.64278761       0.00000000       0.00000000       0.76604444       1.00000000       2.00000000       1.00000000       1.74532925       3.59034381      -0.65086755      -0.00000000      -0.00000000      -0.00000000      -0.29536635
2
Lattice="20.0 0.0 0.0 0.0 20.0 0.0 0.0 0.0 20.0" Properties=species:S:1:pos:R:3:quaternions:R:4:c_diameter\[1\]:R:1:c_diameter\[2\]:R:1:c_diameter\[3\]:R:1:angles:R:1:forces:R:3:torques:R:3 separation_distance=1.0 energy=-0.22352631257196348 pbc="F F F"
X       10.00000000      10.00000000      10.00000000       0.86602540       0.00000000       0.00000000       0.50000000       1.00000000       2.00000000       1.00000000       1.04719755      -4.05567175       0.00000000       0.00000000      -0.00000000      -0.00000000      -0.36490748
X       11.00000000      10.00000000      10.00000000       0.50000000       0.00000000       0.00000000       0.86602540       1.00000000       2.00000000       1.00000000       2.09439510       4.05567175      -0.00000000      -0.00000000      -0.00000000      -0.00000000       0.36490748
2
Lattice="20.0 0.0 0.0 0.0 20.0 0.0 0.0 0.0 20.0" Properties=species:S:1:pos:R:3:quaternions:R:4:c_diameter\[1\]:R:1:c_diameter\[2\]:R:1:c_diameter\[3\]:R:1:angles:R:1:forces:R:3:torques:R:3 separation_distance=1.0 energy=-0.6769451492577782 pbc="F F F"
X       10.00000000      10.00000000      10.00000000       0.76604444       0.00000000       0.00000000       0.64278761       1.00000000       2.00000000       1.00000000       1.39626340      -0.43683936      -0.21145063       0.00000000      -0.00000000      -0.00000000       0.65846936
X       11.00000000      10.00000000      10.00000000       1.00000000       0.00000000       0.00000000       0.00000000       1.00000000       2.00000000       1.00000000       0.00000000       0.43683936       0.21145063      -0.00000000      -0.00000000      -0.00000000       0.10416349
2
Lattice="20.0 0.0 0.0 0.0 20.0 0.0 0.0 0.0 20.0" Properties=species:S:1:pos:R:3:quaternions:R:4:c_diameter\[1\]:R:1:c_diameter\[2\]:R:1:c_diameter\[3\]:R:1:angles:R:1:forces:R:3:torques:R:3 separation_distance=1.0 energy=-0.8068593120604334 pbc="F F F"
X       10.00000000      10.00000000      10.00000000       0.76604444       0.00000000       0.00000000       0.64278761       1.00000000       2.00000000       1.00000000       1.39626340       4.20988952      -1.82537162       0.00000000      -0.00000000      -0.00000000       3.64412957
X       11.00000000      10.00000000      10.00000000       0.98480775       0.00000000       0.00000000       0.17364818       1.00000000       2.00000000       1.00000000       0.34906585      -4.20988952       1.82537162      -0.00000000      -0.00000000      -0.00000000       0.82702357
2
Lattice="20.0 0.0 0.0 0.0 20.0 0.0 0.0 0.0 20.0" Properties=species:S:1:pos:R:3:quaternions:R:4:c_diameter\[1\]:R:1:c_diameter\[2\]:R:1:c_diameter\[3\]:R:1:angles:R:1:forces:R:3:torques:R:3 separation_distance=1.0 energy=-0.21459507561851093 pbc="F F F"
X       10.00000000      10.00000000      10.00000000       0.76604444       0.00000000       0.00000000       0.64278761       1.00000000       2.00000000       1.00000000       1.39626340      -3.73417479       1.17668626       0.00000000      -0.00000000      -0.00000000      -0.60169822
X       11.00000000      10.00000000      10.00000000       0.76604444       0.00000000       0.00000000       0.64278761       1.00000000       2.00000000       1.00000000       1.39626340       3.73417479      -1.17668626      -0.00000000      -0.00000000      -0.00000000      -0.60169822
2
Lattice="20.0 0.0 0.0 0.0 20.0 0.0 0.0 0.0 20.0" Properties=species:S:1:pos:R:3:quaternions:R:4:c_diameter\[1\]:R:1:c_diameter\[2\]:R:1:c_diameter\[3\]:R:1:angles:R:1:forces:R:3:torques:R:3 separation_distance=1.0 energy=-0.13277879408549695 pbc="F F F"
X       10.00000000      10.00000000      10.00000000       0.76604444       0.00000000       0.00000000       0.64278761       1.00000000       2.00000000       1.00000000       1.39626340      -2.24816493       0.00000000       0.00000000      -0.00000000      -0.00000000      -0.01640061
X       11.00000000      10.00000000      10.00000000       0.64278761       0.00000000       0.00000000       0.76604444       1.00000000       2.00000000       1.00000000       1.74532925       2.24816493      -0.00000000      -0.00000000      -0.00000000      -0.00000000       0.01640061
2
Lattice="20.0 0.0 0.0 0.0 20.0 0.0 0.0 0.0 20.0" Properties=species:S:1:pos:R:3:quaternions:R:4:c_diameter\[1\]:R:1:c_diameter\[2\]:R:1:c_diameter\[3\]:R:1:angles:R:1:forces:R:3:torques:R:3 separation_distance=1.0 energy=-0.20190362308202991 pbc="F F F"
X       10.00000000      10.00000000      10.00000000       0.76604444       0.00000000       0.00000000       0.64278761       1.00000000       2.00000000       1.00000000       1.39626340      -3.59034381      -0.65086755       0.00000000      -0.00000000      -0.00000000       0.29536635
X       11.00000000      10.00000000      10.00000000       0.50000000       0.00000000       0.00000000       0.86602540       1.00000000       2.00000000       1.00000000       2.09439510       3.59034381       0.65086755      -0.00000000      -0.00000000      -0.00000000       0.37444374
2
Lattice="20.0 0.0 0.0 0.0 20.0 0.0 0.0 0.0 20.0" Properties=species:S:1:pos:R:3:quaternions:R:4:c_diameter\[1\]:R:1:c_diameter\[2\]:R:1:c_diameter\[3\]:R:1:angles:R:1:forces:R:3:torques:R:3 separation_distance=1.0 energy=-0.3867742835998553 pbc="F F F"
X       10.00000000      10.00000000      10.00000000       0.76604444       0.00000000       0.00000000       0.64278761       1.00000000       2.00000000       1.00000000       1.39626340      -7.02140972      -1.09048710       0.00000000      -0.00000000      -0.00000000       0.47889560
X       11.00000000      10.00000000      10.00000000       0.34202014       0.00000000       0.00000000       0.93969262       1.00000000       2.00000000       1.00000000       2.44346095       7.02140972       1.09048710      -0.00000000      -0.00000000      -0.00000000       0.63607082
2
Lattice="20.0 0.0 0.0 0.0 20.0 0.0 0.0 0.0 20.0" Properties=species:S:1:pos:R:3:quaternions:R:4:c_diameter\[1\]:R:1:c_diameter\[2\]:R:1:c_diameter\[3\]:R:1:angles:R:1:forces:R:3:torques:R:3 separation_distance=1.0 energy=-0.6769451492577778 pbc="F F F"
X       10.00000000      10.00000000      10.00000000       0.76604444       0.00000000       0.00000000       0.64278761       1.00000000       2.00000000       1.00000000       1.39626340      -0.43683936      -0.21145063       0.00000000      -0.00000000      -0.00000000       0.65846936
X       11.00000000      10.00000000      10.00000000       0.00000000       0.00000000       0.00000000       1.00000000       1.00000000       2.00000000       1.00000000       3.14159265       0.43683936       0.21145063      -0.00000000      -0.00000000      -0.00000000       0.10416349
2
Lattice="20.0 0.0 0.0 0.0 20.0 0.0 0.0 0.0 20.0" Properties=species:S:1:pos:R:3:quaternions:R:4:c_diameter\[1\]:R:1:c_diameter\[2\]:R:1:c_diameter\[3\]:R:1:angles:R:1:forces:R:3:torques:R:3 separation_distance=1.0 energy=-0.6769451492577782 pbc="F F F"
X       10.00000000      10.00000000      10.00000000       0.64278761       0.00000000       0.00000000       0.76604444       1.00000000       2.00000000       1.00000000       1.74532925      -0.43683936       0.21145063       0.00000000      -0.00000000      -0.00000000      -0.65846936
X       11.00000000      10.00000000      10.00000000       1.00000000       0.00000000       0.00000000       0.00000000       1.00000000       2.00000000       1.00000000       0.00000000       0.43683936      -0.21145063      -0.00000000      -0.00000000      -0.00000000      -0.10416349
2
Lattice="20.0 0.0 0.0 0.0 20.0 0.0 0.0 0.0 20.0" Properties=species:S:1:pos:R:3:quaternions:R:4:c_diameter\[1\]:R:1:c_diameter\[2\]:R:1:c_diameter\[3\]:R:1:angles:R:1:forces:R:3:torques:R:3 separation_distance=1.0 energy=-0.3867742835998551 pbc="F F F"
X       10.00000000      10.00000000      10.00000000       0.64278761       0.00000000       0.00000000       0.76604444       1.00000000       2.00000000       1.00000000       1.74532925      -7.02140972       1.09048710       0.00000000      -0.00000000      -0.00000000      -0.47889560
X       11.00000000      10.00000000      10.00000000       0.93969262       0.00000000       0.00000000       0.34202014       1.00000000       2.00000000       1.00000000       0.69813170       7.02140972      -1.09048710      -0.00000000      -0.00000000      -0.00000000      -0.63607082
2
Lattice="20.0 0.0 0.0 0.0 20.0 0.0 0.0 0.0 20.0" Properties=species:S:1:pos:R:3:quaternions:R:4:c_diameter\[1\]:R:1:c_diameter\[2\]:R:1:c_diameter\[3\]:R:1:angles:R:1:forces:R:3:torques:R:3 separation_distance=1.0 energy=-0.20190362308203008 pbc="F F F"
X       10.00000000      10.00000000      10.00000000       0.64278761       0.00000000       0.00000000       0.76604444       1.00000000       2.00000000       1.00000000       1.74532925      -3.59034381       0.65086755       0.00000000      -0.00000000      -0.00000000      -0.29536635
X       11.00000000      10.00000000      10.00000000       0.86602540       0.00000000       0.00000000       0.50000000       1.00000000       2.00000000       1.00000000       1.04719755       3.59034381      -0.65086755      -0.00000000      -0.00000000      -0.00000000      -0.37444374
2
Lattice="20.0 0.0 0.0 0.0 20.0 0.0 0.0 0.0 20.0" Properties=species:S:1:pos:R:3:quaternions:R:4:c_diameter\[1\]:R:1:c_diameter\[2\]:R:1:c_diameter\[3\]:R:1:angles:R:1:forces:R:3:torques:R:3 separation_distance=1.0 energy=-0.13277879408549695 pbc="F F F"
X       10.00000000      10.00000000      10.00000000       0.64278761       0.00000000       0.00000000       0.76604444       1.00000000       2.00000000       1.00000000       1.74532925      -2.24816493       0.00000000       0.00000000      -0.00000000      -0.00000000       0.01640061
X       11.00000000      10.00000000      10.00000000       0.76604444       0.00000000       0.00000000       0.64278761       1.00000000       2.00000000       1.00000000       1.39626340       2.24816493      -0.00000000      -0.00000000      -0.00000000      -0.00000000      -0.01640061
2
Lattice="20.0 0.0 0.0 0.0 20.0 0.0 0.0 0.0 20.0" Properties=species:S:1:pos:R:3:quaternions:R:4:c_diameter\[1\]:R:1:c_diameter\[2\]:R:1:c_diameter\[3\]:R:1:angles:R:1:forces:R:3:torques:R:3 separation_distance=1.0 energy=-0.21459507561851093 pbc="F F F"
X       10.00000000      10.00000000      10.00000000       0.64278761       0.00000000       0.00000000       0.76604444       1.00000000       2.00000000       1.00000000       1.74532925      -3.73417479      -1.17668626       0.00000000      -0.00000000      -0.00000000       0.60169822
X       11.00000000      10.00000000      10.00000000       0.64278761       0.00000000       0.00000000       0.76604444       1.00000000       2.00000000       1.00000000       1.74532925       3.73417479       1.17668626      -0.00000000      -0.00000000      -0.00000000       0.60169822
2
Lattice="20.0 0.0 0.0 0.0 20.0 0.0 0.0 0.0 20.0" Properties=species:S:1:pos:R:3:quaternions:R:4:c_diameter\[1\]:R:1:c_diameter\[2\]:R:1:c_diameter\[3\]:R:1:angles:R:1:forces:R:3:torques:R:3 separation_distance=1.0 energy=-0.8068593120604342 pbc="F F F"
X       10.00000000      10.00000000      10.00000000       0.64278761       0.00000000       0.00000000       0.76604444       1.00000000       2.00000000       1.00000000       1.74532925       4.20988952       1.82537162       0.00000000      -0.00000000      -0.00000000      -3.64412957
X       11.00000000      10.00000000      10.00000000       0.17364818       0.00000000       0.00000000       0.98480775       1.00000000       2.00000000       1.00000000       2.79252680      -4.20988952      -1.82537162      -0.00000000      -0.00000000      -0.00000000      -0.82702357
2
Lattice="20.0 0.0 0.0 0.0 20.0 0.0 0.0 0.0 20.0" Properties=species:S:1:pos:R:3:quaternions:R:4:c_diameter\[1\]:R:1:c_diameter\[2\]:R:1:c_diameter\[3\]:R:1:angles:R:1:forces:R:3:torques:R:3 separation_distance=1.0 energy=-0.6769451492577782 pbc="F F F"
X       10.00000000      10.00000000      10.00000000       0.64278761       0.00000000       0.00000000       0.76604444       1.00000000       2.00000000       1.00000000       1.74532925      -0.43683936       0.21145063       0.00000000      -0.00000000      -0.00000000      -0.65846936
X       11.00000000      10.00000000      10.00000000       0.00000000       0.00000000       0.00000000       1.00000000       1.00000000       2.00000000       1.00000000       3.14159265       0.43683936      -0.21145063      -0.00000000      -0.00000000      -0.00000000      -0.10416349
2
Lattice="20.0 0.0 0.0 0.0 20.0 0.0 0.0 0.0 20.0" Properties=species:S:1:pos:R:3:quaternions:R:4:c_diameter\[1\]:R:1:c_diameter\[2\]:R:1:c_diameter\[3\]:R:1:angles:R:1:forces:R:3:torques:R:3 separation_distance=1.0 energy=-0.22352631257196348 pbc="F F F"
X       10.00000000      10.00000000      10.00000000       0.50000000       0.00000000       0.00000000       0.86602540       1.00000000       2.00000000       1.00000000       2.09439510      -4.05567175       0.00000000       0.00000000      -0.00000000      -0.00000000       0.36490748
X       11.00000000      10.00000000      10.00000000       0.86602540       0.00000000       0.00000000       0.50000000       1.00000000       2.00000000       1.00000000       1.04719755       4.05567175      -0.00000000      -0.00000000      -0.00000000      -0.00000000      -0.36490748
2
Lattice="20.0 0.0 0.0 0.0 20.0 0.0 0.0 0.0 20.0" Properties=species:S:1:pos:R:3:quaternions:R:4:c_diameter\[1\]:R:1:c_diameter\[2\]:R:1:c_diameter\[3\]:R:1:angles:R:1:forces:R:3:torques:R:3 separation_distance=1.0 energy=-0.20190362308202991 pbc="F F F"
X       10.00000000      10.00000000      10.00000000       0.50000000       0.00000000       0.00000000       0.86602540       1.00000000       2.00000000       1.00000000       2.09439510      -3.59034381      -0.65086755       0.00000000      -0.00000000      -0.00000000       0.37444374
X       11.00000000      10.00000000      10.00000000       0.76604444       0.00000000       0.00000000       0.64278761       1.00000000       2.00000000       1.00000000       1.39626340       3.59034381       0.65086755      -0.00000000      -0.00000000      -0.00000000       0.29536635
2
Lattice="20.0 0.0 0.0 0.0 20.0 0.0 0.0 0.0 20.0" Properties=species:S:1:pos:R:3:quaternions:R:4:c_diameter\[1\]:R:1:c_diameter\[2\]:R:1:c_diameter\[3\]:R:1:angles:R:1:forces:R:3:torques:R:3 separation_distance=1.0 energy=-0.3867742835998553 pbc="F F F"
X       10.00000000      10.00000000      10.00000000       0.34202014       0.00000000       0.00000000       0.93969262       1.00000000       2.00000000       1.00000000       2.44346095      -7.02140972      -1.09048710       0.00000000      -0.00000000      -0.00000000       0.63607082
X       11.00000000      10.00000000      10.00000000       0.76604444       0.00000000       0.00000000       0.64278761       1.00000000       2.00000000       1.00000000       1.39626340       7.02140972       1.09048710      -0.00000000      -0.00000000      -0.00000000       0.47889560
2
Lattice="20.0 0.0 0.0 0.0 20.0 0.0 0.0 0.0 20.0" Properties=species:S:1:pos:R:3:quaternions:R:4:c_diameter\[1\]:R:1:c_diameter\[2\]:R:1:c_diameter\[3\]:R:1:angles:R:1:forces:R:3:torques:R:3 separation_distance=1.0 energy=-0.8068593120604342 pbc="F F F"
X       10.00000000      10.00000000      10.00000000       0.17364818       0.00000000       0.00000000       0.98480775       1.00000000       2.00000000       1.00000000       2.79252680       4.20988952       1.82537162       0.00000000      -0.00000000      -0.00000000      -0.82702357
X       11.00000000      10.00000000      10.00000000       0.64278761       0.00000000       0.00000000       0.76604444       1.00000000       2.00000000       1.00000000       1.74532925      -4.20988952      -1.82537162      -0.00000000      -0.00000000      -0.00000000      -3.64412957
2
Lattice="20.0 0.0 0.0 0.0 20.0 0.0 0.0 0.0 20.0" Properties=species:S:1:pos:R:3:quaternions:R:4:c_diameter\[1\]:R:1:c_diameter\[2\]:R:1:c_diameter\[3\]:R:1:angles:R:1:forces:R:3:torques:R:3 separation_distance=1.0 energy=-0.6769451492577778 pbc="F F F"
X       10.00000000      10.00000000      10.00000000       0.00000000       0.00000000       0.00000000       1.00000000       1.00000000       2.00000000       1.00000000       3.14159265      -0.43683936      -0.21145063       0.00000000      -0.00000000      -0.00000000       0.10416349
X       11.00000000      10.00000000      10.00000000       0.76604444       0.00000000       0.00000000       0.64278761       1.00000000       2.00000000       1.00000000       1.39626340       0.43683936       0.21145063      -0.00000000      -0.00000000      -0.00000000       0.65846936
2
Lattice="20.0 0.0 0.0 0.0 20.0 0.0 0.0 0.0 20.0" Properties=species:S:1:pos:R:3:quaternions:R:4:c_diameter\[1\]:R:1:c_diameter\[2\]:R:1:c_diameter\[3\]:R:1:angles:R:1:forces:R:3:torques:R:3 separation_distance=1.0 energy=-0.6769451492577782 pbc="F F F"
X       10.00000000      10.00000000      10.00000000       0.00000000       0.00000000       0.00000000       1.00000000       1.00000000       2.00000000       1.00000000       3.14159265      -0.43683936       0.21145063       0.00000000      -0.00000000      -0.00000000      -0.10416349
X       11.00000000      10.00000000      10.00000000       0.64278761       0.00000000       0.00000000       0.76604444       1.00000000       2.00000000       1.00000000       1.74532925       0.43683936      -0.21145063      -0.00000000      -0.00000000      -0.00000000      -0.65846936
2
Lattice="20.0 0.0 0.0 0.0 20.0 0.0 0.0 0.0 20.0" Properties=species:S:1:pos:R:3:quaternions:R:4:c_diameter\[1\]:R:1:c_diameter\[2\]:R:1:c_diameter\[3\]:R:1:angles:R:1:forces:R:3:torques:R:3 separation_distance=1.4666666666666668 energy=-1.1268780274678658 pbc="F F F"
X       10.00000000      10.00000000      10.00000000       1.00000000       0.00000000       0.00000000       0.00000000       1.00000000       2.00000000       1.00000000       0.00000000      -4.47456593       0.00000000       0.00000000      -0.00000000      -0.00000000      -0.00000000
X       11.46666667      10.00000000      10.00000000       1.00000000       0.00000000       0.00000000       0.00000000       1.00000000       2.00000000       1.00000000       0.00000000       4.47456593      -0.00000000      -0.00000000      -0.00000000      -0.00000000      -0.00000000
2
Lattice="20.0 0.0 0.0 0.0 20.0 0.0 0.0 0.0 20.0" Properties=species:S:1:pos:R:3:quaternions:R:4:c_diameter\[1\]:R:1:c_diameter\[2\]:R:1:c_diameter\[3\]:R:1:angles:R:1:forces:R:3:torques:R:3 separation_distance=1.4666666666666668 energy=-1.1268780274678658 pbc="F F F"
X       10.00000000      10.00000000      10.00000000       1.00000000       0.00000000       0.00000000       0.00000000       1.00000000       2.00000000       1.00000000       0.00000000      -4.47456593       0.00000000       0.00000000      -0.00000000      -0.00000000       0.00000000
X       11.46666667      10.00000000      10.00000000       0.00000000       0.00000000       0.00000000       1.00000000       1.00000000       2.00000000       1.00000000       3.14159265       4.47456593      -0.00000000      -0.00000000      -0.00000000      -0.00000000       0.00000000
2
Lattice="20.0 0.0 0.0 0.0 20.0 0.0 0.0 0.0 20.0" Properties=species:S:1:pos:R:3:quaternions:R:4:c_diameter\[1\]:R:1:c_diameter\[2\]:R:1:c_diameter\[3\]:R:1:angles:R:1:forces:R:3:torques:R:3 separation_distance=1.4666666666666668 energy=-1.1268780274678658 pbc="F F F"
X       10.00000000      10.00000000      10.00000000       0.00000000       0.00000000       0.00000000       1.00000000       1.00000000       2.00000000       1.00000000       3.14159265      -4.47456593       0.00000000       0.00000000      -0.00000000      -0.00000000       0.00000000
X       11.46666667      10.00000000      10.00000000       1.00000000       0.00000000       0.00000000       0.00000000       1.00000000       2.00000000       1.00000000       0.00000000       4.47456593      -0.00000000      -0.00000000      -0.00000000      -0.00000000       0.00000000
2
Lattice="20.0 0.0 0.0 0.0 20.0 0.0 0.0 0.0 20.0" Properties=species:S:1:pos:R:3:quaternions:R:4:c_diameter\[1\]:R:1:c_diameter\[2\]:R:1:c_diameter\[3\]:R:1:angles:R:1:forces:R:3:torques:R:3 separation_distance=1.4666666666666668 energy=-1.1268780274678658 pbc="F F F"
X       10.00000000      10.00000000      10.00000000       0.00000000       0.00000000       0.00000000       1.00000000       1.00000000       2.00000000       1.00000000       3.14159265      -4.47456593       0.00000000       0.00000000      -0.00000000      -0.00000000      -0.00000000
X       11.46666667      10.00000000      10.00000000       0.00000000       0.00000000       0.00000000       1.00000000       1.00000000       2.00000000       1.00000000       3.14159265       4.47456593      -0.00000000      -0.00000000      -0.00000000      -0.00000000      -0.00000000
2
Lattice="20.0 0.0 0.0 0.0 20.0 0.0 0.0 0.0 20.0" Properties=species:S:1:pos:R:3:quaternions:R:4:c_diameter\[1\]:R:1:c_diameter\[2\]:R:1:c_diameter\[3\]:R:1:angles:R:1:forces:R:3:torques:R:3 separation_distance=1.6222222222222222 energy=-0.6682647725837904 pbc="F F F"
X       10.00000000      10.00000000      10.00000000       1.00000000       0.00000000       0.00000000       0.00000000       1.00000000       2.00000000       1.00000000       0.00000000       3.43510338       0.00000000       0.00000000      -0.00000000      -0.00000000      -0.00000000
X       11.62222222      10.00000000      10.00000000       1.00000000       0.00000000       0.00000000       0.00000000       1.00000000       2.00000000       1.00000000       0.00000000      -3.43510338      -0.00000000      -0.00000000      -0.00000000      -0.00000000      -0.00000000
2
Lattice="20.0 0.0 0.0 0.0 20.0 0.0 0.0 0.0 20.0" Properties=species:S:1:pos:R:3:quaternions:R:4:c_diameter\[1\]:R:1:c_diameter\[2\]:R:1:c_diameter\[3\]:R:1:angles:R:1:forces:R:3:torques:R:3 separation_distance=1.6222222222222222 energy=-0.9124956470651251 pbc="F F F"
X       10.00000000      10.00000000      10.00000000       1.00000000       0.00000000       0.00000000       0.00000000       1.00000000       2.00000000       1.00000000       0.00000000       4.61116417      -0.78328230       0.00000000      -0.00000000      -0.00000000      -0.23997519
X       11.62222222      10.00000000      10.00000000       0.98480775       0.00000000       0.00000000       0.17364818       1.00000000       2.00000000       1.00000000       0.34906585      -4.61116417       0.78328230      -0.00000000      -0.00000000      -0.00000000       1.51870534
2
Lattice="20.0 0.0 0.0 0.0 20.0 0.0 0.0 0.0 20.0" Properties=species:S:1:pos:R:3:quaternions:R:4:c_diameter\[1\]:R:1:c_diameter\[2\]:R:1:c_diameter\[3\]:R:1:angles:R:1:forces:R:3:torques:R:3 separation_distance=1.6222222222222222 energy=-1.647042000912854 pbc="F F F"
X       10.00000000      10.00000000      10.00000000       1.00000000       0.00000000       0.00000000       0.00000000       1.00000000       2.00000000       1.00000000       0.00000000      -0.24705742      -1.11245079       0.00000000      -0.00000000      -0.00000000       0.96464449
X       11.62222222      10.00000000      10.00000000       0.93969262       0.00000000       0.00000000       0.34202014       1.00000000       2.00000000       1.00000000       0.69813170       0.24705742       1.11245079      -0.00000000      -0.00000000      -0.00000000       0.05280548
2
Lattice="20.0 0.0 0.0 0.0 20.0 0.0 0.0 0.0 20.0" Properties=species:S:1:pos:R:3:quaternions:R:4:c_diameter\[1\]:R:1:c_diameter\[2\]:R:1:c_diameter\[3\]:R:1:angles:R:1:forces:R:3:torques:R:3 separation_distance=1.6222222222222222 energy=-1.6470420009128537 pbc="F F F"
X       10.00000000      10.00000000      10.00000000       1.00000000       0.00000000       0.00000000       0.00000000       1.00000000       2.00000000       1.00000000       0.00000000      -0.24705742       1.11245079       0.00000000      -0.00000000      -0.00000000      -0.96464449
X       11.62222222      10.00000000      10.00000000       0.34202014       0.00000000       0.00000000       0.93969262       1.00000000       2.00000000       1.00000000       2.44346095       0.24705742      -1.11245079      -0.00000000      -0.00000000      -0.00000000      -0.05280548
2
Lattice="20.0 0.0 0.0 0.0 20.0 0.0 0.0 0.0 20.0" Properties=species:S:1:pos:R:3:quaternions:R:4:c_diameter\[1\]:R:1:c_diameter\[2\]:R:1:c_diameter\[3\]:R:1:angles:R:1:forces:R:3:torques:R:3 separation_distance=1.6222222222222222 energy=-0.9124956470651248 pbc="F F F"
X       10.00000000      10.00000000      10.00000000       1.00000000       0.00000000       0.00000000       0.00000000       1.00000000       2.00000000       1.00000000       0.00000000       4.61116417       0.78328230       0.00000000      -0.00000000      -0.00000000       0.23997519
X       11.62222222      10.00000000      10.00000000       0.17364818       0.00000000       0.00000000       0.98480775       1.00000000       2.00000000       1.00000000       2.79252680      -4.61116417      -0.78328230      -0.00000000      -0.00000000      -0.00000000      -1.51870534
2
Lattice="20.0 0.0 0.0 0.0 20.0 0.0 0.0 0.0 20.0" Properties=species:S:1:pos:R:3:quaternions:R:4:c_diameter\[1\]:R:1:c_diameter\[2\]:R:1:c_diameter\[3\]:R:1:angles:R:1:forces:R:3:torques:R:3 separation_distance=1.6222222222222222 energy=-0.6682647725837904 pbc="F F F"
X       10.00000000      10.00000000      10.00000000       1.00000000       0.00000000       0.00000000       0.00000000       1.00000000       2.00000000       1.00000000       0.00000000       3.43510338       0.00000000       0.00000000      -0.00000000      -0.00000000      -0.00000000
X       11.62222222      10.00000000      10.00000000       0.00000000       0.00000000       0.00000000       1.00000000       1.00000000       2.00000000       1.00000000       3.14159265      -3.43510338      -0.00000000      -0.00000000      -0.00000000      -0.00000000      -0.00000000
2
Lattice="20.0 0.0 0.0 0.0 20.0 0.0 0.0 0.0 20.0" Properties=species:S:1:pos:R:3:quaternions:R:4:c_diameter\[1\]:R:1:c_diameter\[2\]:R:1:c_diameter\[3\]:R:1:angles:R:1:forces:R:3:torques:R:3 separation_distance=1.6222222222222222 energy=-0.9124956470651251 pbc="F F F"
X       10.00000000      10.00000000      10.00000000       0.98480775       0.00000000       0.00000000       0.17364818       1.00000000       2.00000000       1.00000000       0.34906585       4.61116417      -0.78328230       0.00000000      -0.00000000      -0.00000000       1.51870534
X       11.62222222      10.00000000      10.00000000       1.00000000       0.00000000       0.00000000       0.00000000       1.00000000       2.00000000       1.00000000       0.00000000      -4.61116417       0.78328230      -0.00000000      -0.00000000      -0.00000000      -0.23997519
2
Lattice="20.0 0.0 0.0 0.0 20.0 0.0 0.0 0.0 20.0" Properties=species:S:1:pos:R:3:quaternions:R:4:c_diameter\[1\]:R:1:c_diameter\[2\]:R:1:c_diameter\[3\]:R:1:angles:R:1:forces:R:3:torques:R:3 separation_distance=1.6222222222222222 energy=-1.110797198672895 pbc="F F F"
X       10.00000000      10.00000000      10.00000000       0.98480775       0.00000000       0.00000000       0.17364818       1.00000000       2.00000000       1.00000000       0.34906585       5.65266161      -1.79958504       0.00000000      -0.00000000      -0.00000000       1.47684423
X       11.62222222      10.00000000      10.00000000       0.98480775       0.00000000       0.00000000       0.17364818       1.00000000       2.00000000       1.00000000       0.34906585      -5.65266161       1.79958504      -0.00000000      -0.00000000      -0.00000000       1.47684423
2
Lattice="20.0 0.0 0.0 0.0 20.0 0.0 0.0 0.0 20.0" Properties=species:S:1:pos:R:3:quaternions:R:4:c_diameter\[1\]:R:1:c_diameter\[2\]:R:1:c_diameter\[3\]:R:1:angles:R:1:forces:R:3:torques:R:3 separation_distance=1.6222222222222222 energy=-2.0274845439559557 pbc="F F F"
X       10.00000000      10.00000000      10.00000000       0.98480775       0.00000000       0.00000000       0.17364818       1.00000000       2.00000000       1.00000000       0.34906585       6.96137151      -3.38298792       0.00000000      -0.00000000      -0.00000000       2.00161118
X       11.62222222      10.00000000      10.00000000       0.93969262       0.00000000       0.00000000       0.34202014       1.00000000       2.00000000       1.00000000       0.69813170      -6.96137151       3.38298792      -0.00000000      -0.00000000      -0.00000000       3.16255693
2
Lattice="20.0 0.0 0.0 0.0 20.0 0.0 0.0 0.0 20.0" Properties=species:S:1:pos:R:3:quaternions:R:4:c_diameter\[1\]:R:1:c_diameter\[2\]:R:1:c_diameter\[3\]:R:1:angles:R:1:forces:R:3:torques:R:3 separation_distance=1.6222222222222222 energy=-1.2597041323698555 pbc="F F F"
X       10.00000000      10.00000000      10.00000000       0.98480775       0.00000000       0.00000000       0.17364818       1.00000000       2.00000000       1.00000000       0.34906585       3.87245471       0.00000000       0.00000000      -0.00000000      -0.00000000       1.36635050
X       11.62222222      10.00000000      10.00000000       0.17364818       0.00000000       0.00000000       0.98480775       1.00000000       2.00000000       1.00000000       2.79252680      -3.87245471      -0.00000000      -0.00000000      -0.00000000      -0.00000000      -1.36635050
2
Lattice="20.0 0.0 0.0 0.0 20.0 0.0 0.0 0.0 20.0" Properties=species:S:1:pos:R:3:quaternions:R:4:c_diameter\[1\]:R:1:c_diameter\[2\]:R:1:c_diameter\[3\]:R:1:angles:R:1:forces:R:3:torques:R:3 separation_distance=1.6222222222222222 energy=-0.9124956470651263 pbc="F F F"
X       10.00000000      10.00000000      10.00000000       0.98480775       0.00000000       0.00000000       0.17364818       1.00000000       2.00000000       1.00000000       0.34906585       4.61116417      -0.78328230       0.00000000      -0.00000000      -0.00000000       1.51870534
X       11.62222222      10.00000000      10.00000000       0.00000000       0.00000000       0.00000000       1.00000000       1.00000000       2.00000000       1.00000000       3.14159265      -4.61116417       0.78328230      -0.00000000      -0.00000000      -0.00000000      -0.23997519
2
Lattice="20.0 0.0 0.0 0.0 20.0 0.0 0.0 0.0 20.0" Properties=species:S:1:pos:R:3:quaternions:R:4:c_diameter\[1\]:R:1:c_diameter\[2\]:R:1:c_diameter\[3\]:R:1:angles:R:1:forces:R:3:torques:R:3 separation_distance=1.6222222222222222 energy=-1.647042000912854 pbc="F F F"
X       10.00000000      10.00000000      10.00000000       0.93969262       0.00000000       0.00000000       0.34202014       1.00000000       2.00000000       1.00000000       0.69813170      -0.24705742      -1.11245079       0.00000000      -0.00000000      -0.00000000       0.05280548
X       11.62222222      10.00000000      10.00000000       1.00000000       0.00000000       0.00000000       0.00000000       1.00000000       2.00000000       1.00000000       0.00000000       0.24705742       1.11245079      -0.00000000      -0.00000000      -0.00000000       0.96464449
2
Lattice="20.0 0.0 0.0 0.0 20.0 0.0 0.0 0.0 20.0" Properties=species:S:1:pos:R:3:quaternions:R:4:c_diameter\[1\]:R:1:c_diameter\[2\]:R:1:c_diameter\[3\]:R:1:angles:R:1:forces:R:3:torques:R:3 separation_distance=1.6222222222222222 energy=-2.0274845439559557 pbc="F F F"
X       10.00000000      10.00000000      10.00000000       0.93969262       0.00000000       0.00000000       0.34202014       1.00000000       2.00000000       1.00000000       0.69813170       6.96137151      -3.38298792       0.00000000      -0.00000000      -0.00000000       3.16255693
X       11.62222222      10.00000000      10.00000000       0.98480775       0.00000000       0.00000000       0.17364818       1.00000000       2.00000000       1.00000000       0.34906585      -6.96137151       3.38298792      -0.00000000      -0.00000000      -0.00000000       2.00161118
2
Lattice="20.0 0.0 0.0 0.0 20.0 0.0 0.0 0.0 20.0" Properties=species:S:1:pos:R:3:quaternions:R:4:c_diameter\[1\]:R:1:c_diameter\[2\]:R:1:c_diameter\[3\]:R:1:angles:R:1:forces:R:3:torques:R:3 separation_distance=1.6222222222222222 energy=-3.1055966165700695 pbc="F F F"
X       10.00000000      10.00000000      10.00000000       0.93969262       0.00000000       0.00000000       0.34202014       1.00000000       2.00000000       1.00000000       0.69813170       0.80785152      -3.71096045       0.00000000      -0.00000000      -0.00000000       2.23849583
X       11.62222222      10.00000000      10.00000000       0.93969262       0.00000000       0.00000000       0.34202014       1.00000000       2.00000000       1.00000000       0.69813170      -0.80785152       3.71096045      -0.00000000      -0.00000000      -0.00000000       2.23849583
2
Lattice="20.0 0.0 0.0 0.0 20.0 0.0 0.0 0.0 20.0" Properties=species:S:1:pos:R:3:quaternions:R:4:c_diameter\[1\]:R:1:c_diameter\[2\]:R:1:c_diameter\[3\]:R:1:angles:R:1:forces:R:3:torques:R:3 separation_distance=1.6222222222222222 energy=-1.6470420009128532 pbc="F F F"
X       10.00000000      10.00000000      10.00000000       0.93969262       0.00000000       0.00000000       0.34202014       1.00000000       2.00000000       1.00000000       0.69813170      -0.24705742      -1.11245079       0.00000000      -0.00000000      -0.00000000       0.05280548
X       11.62222222      10.00000000      10.00000000       0.00000000       0.00000000       0.00000000       1.00000000       1.00000000       2.00000000       1.00000000       3.14159265       0.24705742       1.11245079      -0.00000000      -0.00000000      -0.00000000       0.96464449
2
Lattice="20.0 0.0 0.0 0.0 20.0 0.0 0.0 0.0 20.0" Properties=species:S:1:pos:R:3:quaternions:R:4:c_diameter\[1\]:R:1:c_diameter\[2\]:R:1:c_diameter\[3\]:R:1:angles:R:1:forces:R:3:torques:R:3 separation_distance=1.6222222222222222 energy=-1.6470420009128537 pbc="F F F"
X       10.00000000      10.00000000      10.00000000       0.34202014       0.00000000       0.00000000       0.93969262       1.00000000       2.00000000       1.00000000       2.44346095      -0.24705742       1.11245079       0.00000000      -0.00000000      -0.00000000      -0.05280548
X       11.62222222      10.00000000      10.00000000       1.00000000       0.00000000       0.00000000       0.00000000       1.00000000       2.00000000       1.00000000       0.00000000       0.24705742      -1.11245079      -0.00000000      -0.00000000      -0.00000000      -0.96464449
2
Lattice="20.0 0.0 0.0 0.0 20.0 0.0 0.0 0.0 20.0" Properties=species:S:1:pos:R:3:quaternions:R:4:c_diameter\[1\]:R:1:c_diameter\[2\]:R:1:c_diameter\[3\]:R:1:angles:R:1:forces:R:3:torques:R:3 separation_distance=1.6222222222222222 energy=-3.1055966165700695 pbc="F F F"
X       10.00000000      10.00000000      10.00000000       0.34202014       0.00000000       0.00000000       0.93969262       1.00000000       2.00000000       1.00000000       2.44346095       0.80785152       3.71096045       0.00000000      -0.00000000      -0.00000000      -2.23849583
X       11.62222222      10.00000000      10.00000000       0.34202014       0.00000000       0.00000000       0.93969262       1.00000000       2.00000000       1.00000000       2.44346095      -0.80785152      -3.71096045      -0.00000000      -0.00000000      -0.00000000      -2.23849583
2
Lattice="20.0 0.0 0.0 0.0 20.0 0.0 0.0 0.0 20.0" Properties=species:S:1:pos:R:3:quaternions:R:4:c_diameter\[1\]:R:1:c_diameter\[2\]:R:1:c_diameter\[3\]:R:1:angles:R:1:forces:R:3:torques:R:3 separation_distance=1.6222222222222222 energy=-2.0274845439559566 pbc="F F F"
X       10.00000000      10.00000000      10.00000000       0.34202014       0.00000000       0.00000000       0.93969262       1.00000000       2.00000000       1.00000000       2.44346095       6.96137151       3.38298792       0.00000000      -0.00000000      -0.00000000      -3.16255693
X       11.62222222      10.00000000      10.00000000       0.17364818       0.00000000       0.00000000       0.98480775       1.00000000       2.00000000       1.00000000       2.79252680      -6.96137151      -3.38298792      -0.00000000      -0.00000000      -0.00000000      -2.00161118
2
Lattice="20.0 0.0 0.0 0.0 20.0 0.0 0.0 0.0 20.0" Properties=species:S:1:pos:R:3:quaternions:R:4:c_diameter\[1\]:R:1:c_diameter\[2\]:R:1:c_diameter\[3\]:R:1:angles:R:1:forces:R:3:torques:R:3 separation_distance=1.6222222222222222 energy=-1.6470420009128537 pbc="F F F"
X       10.00000000      10.00000000      10.00000000       0.34202014       0.00000000       0.00000000       0.93969262       1.00000000       2.00000000       1.00000000       2.44346095      -0.24705742       1.11245079       0.00000000      -0.00000000      -0.00000000      -0.05280548
X       11.62222222      10.00000000      10.00000000       0.00000000       0.00000000       0.00000000       1.00000000       1.00000000       2.00000000       1.00000000       3.14159265       0.24705742      -1.11245079      -0.00000000      -0.00000000      -0.00000000      -0.96464449
2
Lattice="20.0 0.0 0.0 0.0 20.0 0.0 0.0 0.0 20.0" Properties=species:S:1:pos:R:3:quaternions:R:4:c_diameter\[1\]:R:1:c_diameter\[2\]:R:1:c_diameter\[3\]:R:1:angles:R:1:forces:R:3:torques:R:3 separation_distance=1.6222222222222222 energy=-0.9124956470651248 pbc="F F F"
X       10.00000000      10.00000000      10.00000000       0.17364818       0.00000000       0.00000000       0.98480775       1.00000000       2.00000000       1.00000000       2.79252680       4.61116417       0.78328230       0.00000000      -0.00000000      -0.00000000      -1.51870534
X       11.62222222      10.00000000      10.00000000       1.00000000       0.00000000       0.00000000       0.00000000       1.00000000       2.00000000       1.00000000       0.00000000      -4.61116417      -0.78328230      -0.00000000      -0.00000000      -0.00000000       0.23997519
2
Lattice="20.0 0.0 0.0 0.0 20.0 0.0 0.0 0.0 20.0" Properties=species:S:1:pos:R:3:quaternions:R:4:c_diameter\[1\]:R:1:c_diameter\[2\]:R:1:c_diameter\[3\]:R:1:angles:R:1:forces:R:3:torques:R:3 separation_distance=1.6222222222222222 energy=-1.2597041323698555 pbc="F F F"
X       10.00000000      10.00000000      10.00000000       0.17364818       0.00000000       0.00000000       0.98480775       1.00000000       2.00000000       1.00000000       2.79252680       3.87245471       0.00000000       0.00000000      -0.00000000      -0.00000000      -1.36635050
X       11.62222222      10.00000000      10.00000000       0.98480775       0.00000000       0.00000000       0.17364818       1.00000000       2.00000000       1.00000000       0.34906585      -3.87245471      -0.00000000      -0.00000000      -0.00000000      -0.00000000       1.36635050
2
Lattice="20.0 0.0 0.0 0.0 20.0 0.0 0.0 0.0 20.0" Properties=species:S:1:pos:R:3:quaternions:R:4:c_diameter\[1\]:R:1:c_diameter\[2\]:R:1:c_diameter\[3\]:R:1:angles:R:1:forces:R:3:torques:R:3 separation_distance=1.6222222222222222 energy=-2.0274845439559566 pbc="F F F"
X       10.00000000      10.00000000      10.00000000       0.17364818       0.00000000       0.00000000       0.98480775       1.00000000       2.00000000       1.00000000       2.79252680       6.96137151       3.38298792       0.00000000      -0.00000000      -0.00000000      -2.00161118
X       11.62222222      10.00000000      10.00000000       0.34202014       0.00000000       0.00000000       0.93969262       1.00000000       2.00000000       1.00000000       2.44346095      -6.96137151      -3.38298792      -0.00000000      -0.00000000      -0.00000000      -3.16255693
2
Lattice="20.0 0.0 0.0 0.0 20.0 0.0 0.0 0.0 20.0" Properties=species:S:1:pos:R:3:quaternions:R:4:c_diameter\[1\]:R:1:c_diameter\[2\]:R:1:c_diameter\[3\]:R:1:angles:R:1:forces:R:3:torques:R:3 separation_distance=1.6222222222222222 energy=-1.110797198672895 pbc="F F F"
X       10.00000000      10.00000000      10.00000000       0.17364818       0.00000000       0.00000000       0.98480775       1.00000000       2.00000000       1.00000000       2.79252680       5.65266161       1.79958504       0.00000000      -0.00000000      -0.00000000      -1.47684423
X       11.62222222      10.00000000      10.00000000       0.17364818       0.00000000       0.00000000       0.98480775       1.00000000       2.00000000       1.00000000       2.79252680      -5.65266161      -1.79958504      -0.00000000      -0.00000000      -0.00000000      -1.47684423
2
Lattice="20.0 0.0 0.0 0.0 20.0 0.0 0.0 0.0 20.0" Properties=species:S:1:pos:R:3:quaternions:R:4:c_diameter\[1\]:R:1:c_diameter\[2\]:R:1:c_diameter\[3\]:R:1:angles:R:1:forces:R:3:torques:R:3 separation_distance=1.6222222222222222 energy=-0.9124956470651269 pbc="F F F"
X       10.00000000      10.00000000      10.00000000       0.17364818       0.00000000       0.00000000       0.98480775       1.00000000       2.00000000       1.00000000       2.79252680       4.61116417       0.78328230       0.00000000      -0.00000000      -0.00000000      -1.51870534
X       11.62222222      10.00000000      10.00000000       0.00000000       0.00000000       0.00000000       1.00000000       1.00000000       2.00000000       1.00000000       3.14159265      -4.61116417      -0.78328230      -0.00000000      -0.00000000      -0.00000000       0.23997519
2
Lattice="20.0 0.0 0.0 0.0 20.0 0.0 0.0 0.0 20.0" Properties=species:S:1:pos:R:3:quaternions:R:4:c_diameter\[1\]:R:1:c_diameter\[2\]:R:1:c_diameter\[3\]:R:1:angles:R:1:forces:R:3:torques:R:3 separation_distance=1.6222222222222222 energy=-0.6682647725837904 pbc="F F F"
X       10.00000000      10.00000000      10.00000000       0.00000000       0.00000000       0.00000000       1.00000000       1.00000000       2.00000000       1.00000000       3.14159265       3.43510338       0.00000000       0.00000000      -0.00000000      -0.00000000      -0.00000000
X       11.62222222      10.00000000      10.00000000       1.00000000       0.00000000       0.00000000       0.00000000       1.00000000       2.00000000       1.00000000       0.00000000      -3.43510338      -0.00000000      -0.00000000      -0.00000000      -0.00000000      -0.00000000
2
Lattice="20.0 0.0 0.0 0.0 20.0 0.0 0.0 0.0 20.0" Properties=species:S:1:pos:R:3:quaternions:R:4:c_diameter\[1\]:R:1:c_diameter\[2\]:R:1:c_diameter\[3\]:R:1:angles:R:1:forces:R:3:torques:R:3 separation_distance=1.6222222222222222 energy=-0.9124956470651263 pbc="F F F"
X       10.00000000      10.00000000      10.00000000       0.00000000       0.00000000       0.00000000       1.00000000       1.00000000       2.00000000       1.00000000       3.14159265       4.61116417      -0.78328230       0.00000000      -0.00000000      -0.00000000      -0.23997519
X       11.62222222      10.00000000      10.00000000       0.98480775       0.00000000       0.00000000       0.17364818       1.00000000       2.00000000       1.00000000       0.34906585      -4.61116417       0.78328230      -0.00000000      -0.00000000      -0.00000000       1.51870534
2
Lattice="20.0 0.0 0.0 0.0 20.0 0.0 0.0 0.0 20.0" Properties=species:S:1:pos:R:3:quaternions:R:4:c_diameter\[1\]:R:1:c_diameter\[2\]:R:1:c_diameter\[3\]:R:1:angles:R:1:forces:R:3:torques:R:3 separation_distance=1.6222222222222222 energy=-1.6470420009128532 pbc="F F F"
X       10.00000000      10.00000000      10.00000000       0.00000000       0.00000000       0.00000000       1.00000000       1.00000000       2.00000000       1.00000000       3.14159265      -0.24705742      -1.11245079       0.00000000      -0.00000000      -0.00000000       0.96464449
X       11.62222222      10.00000000      10.00000000       0.93969262       0.00000000       0.00000000       0.34202014       1.00000000       2.00000000       1.00000000       0.69813170       0.24705742       1.11245079      -0.00000000      -0.00000000      -0.00000000       0.05280548
2
Lattice="20.0 0.0 0.0 0.0 20.0 0.0 0.0 0.0 20.0" Properties=species:S:1:pos:R:3:quaternions:R:4:c_diameter\[1\]:R:1:c_diameter\[2\]:R:1:c_diameter\[3\]:R:1:angles:R:1:forces:R:3:torques:R:3 separation_distance=1.6222222222222222 energy=-1.6470420009128537 pbc="F F F"
X       10.00000000      10.00000000      10.00000000       0.00000000       0.00000000       0.00000000       1.00000000       1.00000000       2.00000000       1.00000000       3.14159265      -0.24705742       1.11245079       0.00000000      -0.00000000      -0.00000000      -0.96464449
X       11.62222222      10.00000000      10.00000000       0.34202014       0.00000000       0.00000000       0.93969262       1.00000000       2.00000000       1.00000000       2.44346095       0.24705742      -1.11245079      -0.00000000      -0.00000000      -0.00000000      -0.05280548
2
Lattice="20.0 0.0 0.0 0.0 20.0 0.0 0.0 0.0 20.0" Properties=species:S:1:pos:R:3:quaternions:R:4:c_diameter\[1\]:R:1:c_diameter\[2\]:R:1:c_diameter\[3\]:R:1:angles:R:1:forces:R:3:torques:R:3 separation_distance=1.6222222222222222 energy=-0.9124956470651269 pbc="F F F"
X       10.00000000      10.00000000      10.00000000       0.00000000       0.00000000       0.00000000       1.00000000       1.00000000       2.00000000       1.00000000       3.14159265       4.61116417       0.78328230       0.00000000      -0.00000000      -0.00000000       0.23997519
X       11.62222222      10.00000000      10.00000000       0.17364818       0.00000000       0.00000000       0.98480775       1.00000000       2.00000000       1.00000000       2.79252680      -4.61116417      -0.78328230      -0.00000000      -0.00000000      -0.00000000      -1.51870534
2
Lattice="20.0 0.0 0.0 0.0 20.0 0.0 0.0 0.0 20.0" Properties=species:S:1:pos:R:3:quaternions:R:4:c_diameter\[1\]:R:1:c_diameter\[2\]:R:1:c_diameter\[3\]:R:1:angles:R:1:forces:R:3:torques:R:3 separation_distance=1.6222222222222222 energy=-0.6682647725837904 pbc="F F F"
X       10.00000000      10.00000000      10.00000000       0.00000000       0.00000000       0.00000000       1.00000000       1.00000000       2.00000000       1.00000000       3.14159265       3.43510338       0.00000000       0.00000000      -0.00000000      -0.00000000      -0.00000000
X       11.62222222      10.00000000      10.00000000       0.00000000       0.00000000       0.00000000       1.00000000       1.00000000       2.00000000       1.00000000       3.14159265      -3.43510338      -0.00000000      -0.00000000      -0.00000000      -0.00000000      -0.00000000
2
Lattice="20.0 0.0 0.0 0.0 20.0 0.0 0.0 0.0 20.0" Properties=species:S:1:pos:R:3:quaternions:R:4:c_diameter\[1\]:R:1:c_diameter\[2\]:R:1:c_diameter\[3\]:R:1:angles:R:1:forces:R:3:torques:R:3 separation_distance=1.7777777777777777 energy=-0.3127722892517413 pbc="F F F"
X       10.00000000      10.00000000      10.00000000       1.00000000       0.00000000       0.00000000       0.00000000       1.00000000       2.00000000       1.00000000       0.00000000       1.40645083       0.00000000       0.00000000      -0.00000000      -0.00000000      -0.00000000
X       11.77777778      10.00000000      10.00000000       1.00000000       0.00000000       0.00000000       0.00000000       1.00000000       2.00000000       1.00000000       0.00000000      -1.40645083      -0.00000000      -0.00000000      -0.00000000      -0.00000000      -0.00000000
2
Lattice="20.0 0.0 0.0 0.0 20.0 0.0 0.0 0.0 20.0" Properties=species:S:1:pos:R:3:quaternions:R:4:c_diameter\[1\]:R:1:c_diameter\[2\]:R:1:c_diameter\[3\]:R:1:angles:R:1:forces:R:3:torques:R:3 separation_distance=1.7777777777777777 energy=-0.41582658052760885 pbc="F F F"
X       10.00000000      10.00000000      10.00000000       1.00000000       0.00000000       0.00000000       0.00000000       1.00000000       2.00000000       1.00000000       0.00000000       1.97704008      -0.31529162       0.00000000      -0.00000000      -0.00000000      -0.08638941
X       11.77777778      10.00000000      10.00000000       0.98480775       0.00000000       0.00000000       0.17364818       1.00000000       2.00000000       1.00000000       0.34906585      -1.97704008       0.31529162      -0.00000000      -0.00000000      -0.00000000       0.65448005
2
Lattice="20.0 0.0 0.0 0.0 20.0 0.0 0.0 0.0 20.0" Properties=species:S:1:pos:R:3:quaternions:R:4:c_diameter\[1\]:R:1:c_diameter\[2\]:R:1:c_diameter\[3\]:R:1:angles:R:1:forces:R:3:torques:R:3 separation_distance=1.7777777777777777 energy=-0.8525737537926762 pbc="F F F"
X       10.00000000      10.00000000      10.00000000       1.00000000       0.00000000       0.00000000       0.00000000       1.00000000       2.00000000       1.00000000       0.00000000       4.51304889      -0.95531637       0.00000000      -0.00000000      -0.00000000      -0.37880400
X       11.77777778      10.00000000      10.00000000       0.93969262       0.00000000       0.00000000       0.34202014       1.00000000       2.00000000       1.00000000       0.69813170      -4.51304889       0.95531637      -0.00000000      -0.00000000      -0.00000000       2.08664548
2
Lattice="20.0 0.0 0.0 0.0 20.0 0.0 0.0 0.0 20.0" Properties=species:S:1:pos:R:3:quaternions:R:4:c_diameter\[1\]:R:1:c_diameter\[2\]:R:1:c_diameter\[3\]:R:1:angles:R:1:forces:R:3:torques:R:3 separation_distance=1.7777777777777777 energy=-1.892554764912189 pbc="F F F"
X       10.00000000      10.00000000      10.00000000       1.00000000       0.00000000       0.00000000       0.00000000       1.00000000       2.00000000       1.00000000       0.00000000       6.46760397      -1.56537632       0.00000000      -0.00000000      -0.00000000      -0.22470409
X       11.77777778      10.00000000      10.00000000       0.86602540       0.00000000       0.00000000       0.50000000       1.00000000       2.00000000       1.00000000       1.04719755      -6.46760397       1.56537632      -0.00000000      -0.00000000      -0.00000000       2.75493330
2
Lattice="20.0 0.0 0.0 0.0 20.0 0.0 0.0 0.0 20.0" Properties=species:S:1:pos:R:3:quaternions:R:4:c_diameter\[1\]:R:1:c_diameter\[2\]:R:1:c_diameter\[3\]:R:1:angles:R:1:forces:R:3:torques:R:3 separation_distance=1.7777777777777777 energy=-1.8925547649121885 pbc="F F F"
X       10.00000000      10.00000000      10.00000000       1.00000000       0.00000000       0.00000000       0.00000000       1.00000000       2.00000000       1.00000000       0.00000000       6.46760397       1.56537632       0.00000000      -0.00000000      -0.00000000       0.22470409
X       11.77777778      10.00000000      10.00000000       0.50000000       0.00000000       0.00000000       0.86602540       1.00000000       2.00000000       1.00000000       2.09439510      -6.46760397      -1.56537632      -0.00000000      -0.00000000      -0.00000000      -2.75493330
2
Lattice="20.0 0.0 0.0 0.0 20.0 0.0 0.0 0.0 20.0" Properties=species:S:1:pos:R:3:quaternions:R:4:c_diameter\[1\]:R:1:c_diameter\[2\]:R:1:c_diameter\[3\]:R:1:angles:R:1:forces:R:3:torques:R:3 separation_distance=1.7777777777777777 energy=-0.8525737537926759 pbc="F F F"
X       10.00000000      10.00000000      10.00000000       1.00000000       0.00000000       0.00000000       0.00000000       1.00000000       2.00000000       1.00000000       0.00000000       4.51304889       0.95531637       0.00000000      -0.00000000      -0.00000000       0.37880400
X       11.77777778      10.00000000      10.00000000       0.34202014       0.00000000       0.00000000       0.93969262       1.00000000       2.00000000       1.00000000       2.44346095      -4.51304889      -0.95531637      -0.00000000      -0.00000000      -0.00000000      -2.08664548
2
Lattice="20.0 0.0 0.0 0.0 20.0 0.0 0.0 0.0 20.0" Properties=species:S:1:pos:R:3:quaternions:R:4:c_diameter\[1\]:R:1:c_diameter\[2\]:R:1:c_diameter\[3\]:R:1:angles:R:1:forces:R:3:torques:R:3 separation_distance=1.7777777777777777 energy=-0.4158265805276088 pbc="F F F"
X       10.00000000      10.00000000      10.00000000       1.00000000       0.00000000       0.00000000       0.00000000       1.00000000       2.00000000       1.00000000       0.00000000       1.97704008       0.31529162       0.00000000      -0.00000000      -0.00000000       0.08638941
X       11.77777778      10.00000000      10.00000000       0.17364818       0.00000000       0.00000000       0.98480775       1.00000000       2.00000000       1.00000000       2.79252680      -1.97704008      -0.31529162      -0.00000000      -0.00000000      -0.00000000      -0.65448005
2
Lattice="20.0 0.0 0.0 0.0 20.0 0.0 0.0 0.0 20.0" Properties=species:S:1:pos:R:3:quaternions:R:4:c_diameter\[1\]:R:1:c_diameter\[2\]:R:1:c_diameter\[3\]:R:1:angles:R:1:forces:R:3:torques:R:3 separation_distance=1.7777777777777777 energy=-0.3127722892517413 pbc="F F F"
X       10.00000000      10.00000000      10.00000000       1.00000000       0.00000000       0.00000000       0.00000000       1.00000000       2.00000000       1.00000000       0.00000000       1.40645083       0.00000000       0.00000000      -0.00000000      -0.00000000      -0.00000000
X       11.77777778      10.00000000      10.00000000       0.00000000       0.00000000       0.00000000       1.00000000       1.00000000       2.00000000       1.00000000       3.14159265      -1.40645083      -0.00000000      -0.00000000      -0.00000000      -0.00000000      -0.00000000
2
Lattice="20.0 0.0 0.0 0.0 20.0 0.0 0.0 0.0 20.0" Properties=species:S:1:pos:R:3:quaternions:R:4:c_diameter\[1\]:R:1:c_diameter\[2\]:R:1:c_diameter\[3\]:R:1:angles:R:1:forces:R:3:torques:R:3 separation_distance=1.7777777777777777 energy=-0.41582658052760885 pbc="F F F"
X       10.00000000      10.00000000      10.00000000       0.98480775       0.00000000       0.00000000       0.17364818       1.00000000       2.00000000       1.00000000       0.34906585       1.97704008      -0.31529162       0.00000000      -0.00000000      -0.00000000       0.65448005
X       11.77777778      10.00000000      10.00000000       1.00000000       0.00000000       0.00000000       0.00000000       1.00000000       2.00000000       1.00000000       0.00000000      -1.97704008       0.31529162      -0.00000000      -0.00000000      -0.00000000      -0.08638941
2
Lattice="20.0 0.0 0.0 0.0 20.0 0.0 0.0 0.0 20.0" Properties=species:S:1:pos:R:3:quaternions:R:4:c_diameter\[1\]:R:1:c_diameter\[2\]:R:1:c_diameter\[3\]:R:1:angles:R:1:forces:R:3:torques:R:3 separation_distance=1.7777777777777777 energy=-0.5078116089962618 pbc="F F F"
X       10.00000000      10.00000000      10.00000000       0.98480775       0.00000000       0.00000000       0.17364818       1.00000000       2.00000000       1.00000000       0.34906585       2.39409554      -0.71998444       0.00000000      -0.00000000      -0.00000000       0.64856961
X       11.77777778      10.00000000      10.00000000       0.98480775       0.00000000       0.00000000       0.17364818       1.00000000       2.00000000       1.00000000       0.34906585      -2.39409554       0.71998444      -0.00000000      -0.00000000      -0.00000000       0.64856961
2
Lattice="20.0 0.0 0.0 0.0 20.0 0.0 0.0 0.0 20.0" Properties=species:S:1:pos:R:3:quaternions:R:4:c_diameter\[1\]:R:1:c_diameter\[2\]:R:1:c_diameter\[3\]:R:1:angles:R:1:forces:R:3:torques:R:3 separation_distance=1.7777777777777777 energy=-0.9410292093000268 pbc="F F F"
X       10.00000000      10.00000000      10.00000000       0.98480775       0.00000000       0.00000000       0.17364818       1.00000000       2.00000000       1.00000000       0.34906585       4.84655173      -1.66887691       0.00000000      -0.00000000      -0.00000000       0.91084760
X       11.77777778      10.00000000      10.00000000       0.93969262       0.00000000       0.00000000       0.34202014       1.00000000       2.00000000       1.00000000       0.69813170      -4.84655173       1.66887691      -0.00000000      -0.00000000      -0.00000000       2.09599486
2
Lattice="20.0 0.0 0.0 0.0 20.0 0.0 0.0 0.0 20.0" Properties=species:S:1:pos:R:3:quaternions:R:4:c_diameter\[1\]:R:1:c_diameter\[2\]:R:1:c_diameter\[3\]:R:1:angles:R:1:forces:R:3:torques:R:3 separation_distance=1.7777777777777777 energy=-1.2509024424383348 pbc="F F F"
X       10.00000000      10.00000000      10.00000000       0.98480775       0.00000000       0.00000000       0.17364818       1.00000000       2.00000000       1.00000000       0.34906585       6.20680995       0.47984659       0.00000000      -0.00000000      -0.00000000       2.00850968
X       11.77777778      10.00000000      10.00000000       0.34202014       0.00000000       0.00000000       0.93969262       1.00000000       2.00000000       1.00000000       2.44346095      -6.20680995      -0.47984659      -0.00000000      -0.00000000      -0.00000000      -2.82303953
2
Lattice="20.0 0.0 0.0 0.0 20.0 0.0 0.0 0.0 20.0" Properties=species:S:1:pos:R:3:quaternions:R:4:c_diameter\[1\]:R:1:c_diameter\[2\]:R:1:c_diameter\[3\]:R:1:angles:R:1:forces:R:3:torques:R:3 separation_distance=1.7777777777777777 energy=-0.5906434588487229 pbc="F F F"
X       10.00000000      10.00000000      10.00000000       0.98480775       0.00000000       0.00000000       0.17364818       1.00000000       2.00000000       1.00000000       0.34906585       3.05913556       0.00000000       0.00000000      -0.00000000      -0.00000000       1.04018205
X       11.77777778      10.00000000      10.00000000       0.17364818       0.00000000       0.00000000       0.98480775       1.00000000       2.00000000       1.00000000       2.79252680      -3.05913556      -0.00000000      -0.00000000      -0.00000000      -0.00000000      -1.04018205
2
Lattice="20.0 0.0 0.0 0.0 20.0 0.0 0.0 0.0 20.0" Properties=species:S:1:pos:R:3:quaternions:R:4:c_diameter\[1\]:R:1:c_diameter\[2\]:R:1:c_diameter\[3\]:R:1:angles:R:1:forces:R:3:torques:R:3 separation_distance=1.7777777777777777 energy=-0.41582658052760973 pbc="F F F"
X       10.00000000      10.00000000      10.00000000       0.98480775       0.00000000       0.00000000       0.17364818       1.00000000       2.00000000       1.00000000       0.34906585       1.97704008      -0.31529162       0.00000000      -0.00000000      -0.00000000       0.65448005
X       11.77777778      10.00000000      10.00000000       0.00000000       0.00000000       0.00000000       1.00000000       1.00000000       2.00000000       1.00000000       3.14159265      -1.97704008       0.31529162      -0.00000000      -0.00000000      -0.00000000      -0.08638941
2
Lattice="20.0 0.0 0.0 0.0 20.0 0.0 0.0 0.0 20.0" Properties=species:S:1:pos:R:3:quaternions:R:4:c_diameter\[1\]:R:1:c_diameter\[2\]:R:1:c_diameter\[3\]:R:1:angles:R:1:forces:R:3:torques:R:3 separation_distance=1.7777777777777777 energy=-0.8525737537926762 pbc="F F F"
X       10.00000000      10.00000000      10.00000000       0.93969262       0.00000000       0.00000000       0.34202014       1.00000000       2.00000000       1.00000000       0.69813170       4.51304889      -0.95531637       0.00000000      -0.00000000      -0.00000000       2.08664548
X       11.77777778      10.00000000      10.00000000       1.00000000       0.00000000       0.00000000       0.00000000       1.00000000       2.00000000       1.00000000       0.00000000      -4.51304889       0.95531637      -0.00000000      -0.00000000      -0.00000000      -0.37880400
2
Lattice="20.0 0.0 0.0 0.0 20.0 0.0 0.0 0.0 20.0" Properties=species:S:1:pos:R:3:quaternions:R:4:c_diameter\[1\]:R:1:c_diameter\[2\]:R:1:c_diameter\[3\]:R:1:angles:R:1:forces:R:3:torques:R:3 separation_distance=1.7777777777777777 energy=-0.9410292093000268 pbc="F F F"
X       10.00000000      10.00000000      10.00000000       0.93969262       0.00000000       0.00000000       0.34202014       1.00000000       2.00000000       1.00000000       0.69813170       4.84655173      -1.66887691       0.00000000      -0.00000000      -0.00000000       2.09599486
X       11.77777778      10.00000000      10.00000000       0.98480775       0.00000000       0.00000000       0.17364818       1.00000000       2.00000000       1.00000000       0.34906585      -4.84655173       1.66887691      -0.00000000      -0.00000000      -0.00000000       0.91084760
2
Lattice="20.0 0.0 0.0 0.0 20.0 0.0 0.0 0.0 20.0" Properties=species:S:1:pos:R:3:quaternions:R:4:c_diameter\[1\]:R:1:c_diameter\[2\]:R:1:c_diameter\[3\]:R:1:angles:R:1:forces:R:3:torques:R:3 separation_distance=1.7777777777777777 energy=-1.2509024424383344 pbc="F F F"
X       10.00000000      10.00000000      10.00000000       0.93969262       0.00000000       0.00000000       0.34202014       1.00000000       2.00000000       1.00000000       0.69813170       6.20680995      -0.47984659       0.00000000      -0.00000000      -0.00000000       2.82303953
X       11.77777778      10.00000000      10.00000000       0.17364818       0.00000000       0.00000000       0.98480775       1.00000000       2.00000000       1.00000000       2.79252680      -6.20680995       0.47984659      -0.00000000      -0.00000000      -0.00000000      -2.00850968
2
Lattice="20.0 0.0 0.0 0.0 20.0 0.0 0.0 0.0 20.0" Properties=species:S:1:pos:R:3:quaternions:R:4:c_diameter\[1\]:R:1:c_diameter\[2\]:R:1:c_diameter\[3\]:R:1:angles:R:1:forces:R:3:torques:R:3 separation_distance=1.7777777777777777 energy=-0.8525737537926761 pbc="F F F"
X       10.00000000      10.00000000      10.00000000       0.93969262       0.00000000       0.00000000       0.34202014       1.00000000       2.00000000       1.00000000       0.69813170       4.51304889      -0.95531637       0.00000000      -0.00000000      -0.00000000       2.08664548
X       11.77777778      10.00000000      10.00000000       0.00000000       0.00000000       0.00000000       1.00000000       1.00000000       2.00000000       1.00000000       3.14159265      -4.51304889       0.95531637      -0.00000000      -0.00000000      -0.00000000      -0.37880400
2
Lattice="20.0 0.0 0.0 0.0 20.0 0.0 0.0 0.0 20.0" Properties=species:S:1:pos:R:3:quaternions:R:4:c_diameter\[1\]:R:1:c_diameter\[2\]:R:1:c_diameter\[3\]:R:1:angles:R:1:forces:R:3:torques:R:3 separation_distance=1.7777777777777777 energy=-1.892554764912189 pbc="F F F"
X       10.00000000      10.00000000      10.00000000       0.86602540       0.00000000       0.00000000       0.50000000       1.00000000       2.00000000       1.00000000       1.04719755       6.46760397      -1.56537632       0.00000000      -0.00000000      -0.00000000       2.75493330
X       11.77777778      10.00000000      10.00000000       1.00000000       0.00000000       0.00000000       0.00000000       1.00000000       2.00000000       1.00000000       0.00000000      -6.46760397       1.56537632      -0.00000000      -0.00000000      -0.00000000      -0.22470409
2
Lattice="20.0 0.0 0.0 0.0 20.0 0.0 0.0 0.0 20.0" Properties=species:S:1:pos:R:3:quaternions:R:4:c_diameter\[1\]:R:1:c_diameter\[2\]:R:1:c_diameter\[3\]:R:1:angles:R:1:forces:R:3:torques:R:3 separation_distance=1.7777777777777777 energy=-1.8925547649121883 pbc="F F F"
X       10.00000000      10.00000000      10.00000000       0.86602540       0.00000000       0.00000000       0.50000000       1.00000000       2.00000000       1.00000000       1.04719755       6.46760397      -1.56537632       0.00000000      -0.00000000      -0.00000000       2.75493330
X       11.77777778      10.00000000      10.00000000       0.00000000       0.00000000       0.00000000       1.00000000       1.00000000       2.00000000       1.00000000       3.14159265      -6.46760397       1.56537632      -0.00000000      -0.00000000      -0.00000000      -0.22470409
2
Lattice="20.0 0.0 0.0 0.0 20.0 0.0 0.0 0.0 20.0" Properties=species:S:1:pos:R:3:quaternions:R:4:c_diameter\[1\]:R:1:c_diameter\[2\]:R:1:c_diameter\[3\]:R:1:angles:R:1:forces:R:3:torques:R:3 separation_distance=1.7777777777777777 energy=-1.8925547649121885 pbc="F F F"
X       10.00000000      10.00000000      10.00000000       0.50000000       0.00000000       0.00000000       0.86602540       1.00000000       2.00000000       1.00000000       2.09439510       6.46760397       1.56537632       0.00000000      -0.00000000      -0.00000000      -2.75493330
X       11.77777778      10.00000000      10.00000000       1.00000000       0.00000000       0.00000000       0.00000000       1.00000000       2.00000000       1.00000000       0.00000000      -6.46760397      -1.56537632      -0.00000000      -0.00000000      -0.00000000       0.22470409
2
Lattice="20.0 0.0 0.0 0.0 20.0 0.0 0.0 0.0 20.0" Properties=species:S:1:pos:R:3:quaternions:R:4:c_diameter\[1\]:R:1:c_diameter\[2\]:R:1:c_diameter\[3\]:R:1:angles:R:1:forces:R:3:torques:R:3 separation_distance=1.7777777777777777 energy=-1.89255476491219 pbc="F F F"
X       10.00000000      10.00000000      10.00000000       0.50000000       0.00000000       0.00000000       0.86602540       1.00000000       2.00000000       1.00000000       2.09439510       6.46760397       1.56537632       0.00000000      -0.00000000      -0.00000000      -2.75493330
X       11.77777778      10.00000000      10.00000000       0.00000000       0.00000000       0.00000000       1.00000000       1.00000000       2.00000000       1.00000000       3.14159265      -6.46760397      -1.56537632      -0.00000000      -0.00000000      -0.00000000       0.22470409
2
Lattice="20.0 0.0 0.0 0.0 20.0 0.0 0.0 0.0 20.0" Properties=species:S:1:pos:R:3:quaternions:R:4:c_diameter\[1\]:R:1:c_diameter\[2\]:R:1:c_diameter\[3\]:R:1:angles:R:1:forces:R:3:torques:R:3 separation_distance=1.7777777777777777 energy=-0.8525737537926759 pbc="F F F"
X       10.00000000      10.00000000      10.00000000       0.34202014       0.00000000       0.00000000       0.93969262       1.00000000       2.00000000       1.00000000       2.44346095       4.51304889       0.95531637       0.00000000      -0.00000000      -0.00000000      -2.08664548
X       11.77777778      10.00000000      10.00000000       1.00000000       0.00000000       0.00000000       0.00000000       1.00000000       2.00000000       1.00000000       0.00000000      -4.51304889      -0.95531637      -0.00000000      -0.00000000      -0.00000000       0.37880400
2
Lattice="20.0 0.0 0.0 0.0 20.0 0.0 0.0 0.0 20.0" Properties=species:S:1:pos:R:3:quaternions:R:4:c_diameter\[1\]:R:1:c_diameter\[2\]:R:1:c_diameter\[3\]:R:1:angles:R:1:forces:R:3:torques:R:3 separation_distance=1.7777777777777777 energy=-1.2509024424383348 pbc="F F F"
X       10.00000000      10.00000000      10.00000000       0.34202014       0.00000000       0.00000000       0.93969262       1.00000000       2.00000000       1.00000000       2.44346095       6.20680995       0.47984659       0.00000000      -0.00000000      -0.00000000      -2.82303953
X       11.77777778      10.00000000      10.00000000       0.98480775       0.00000000       0.00000000       0.17364818       1.00000000       2.00000000       1.00000000       0.34906585      -6.20680995      -0.47984659      -0.00000000      -0.00000000      -0.00000000       2.00850968
2
Lattice="20.0 0.0 0.0 0.0 20.0 0.0 0.0 0.0 20.0" Properties=species:S:1:pos:R:3:quaternions:R:4:c_diameter\[1\]:R:1:c_diameter\[2\]:R:1:c_diameter\[3\]:R:1:angles:R:1:forces:R:3:torques:R:3 separation_distance=1.7777777777777777 energy=-0.9410292093000271 pbc="F F F"
X       10.00000000      10.00000000      10.00000000       0.34202014       0.00000000       0.00000000       0.93969262       1.00000000       2.00000000       1.00000000       2.44346095       4.84655173       1.66887691       0.00000000      -0.00000000      -0.00000000      -2.09599486
X       11.77777778      10.00000000      10.00000000       0.17364818       0.00000000       0.00000000       0.98480775       1.00000000       2.00000000       1.00000000       2.79252680      -4.84655173      -1.66887691      -0.00000000      -0.00000000      -0.00000000      -0.91084760
2
Lattice="20.0 0.0 0.0 0.0 20.0 0.0 0.0 0.0 20.0" Properties=species:S:1:pos:R:3:quaternions:R:4:c_diameter\[1\]:R:1:c_diameter\[2\]:R:1:c_diameter\[3\]:R:1:angles:R:1:forces:R:3:torques:R:3 separation_distance=1.7777777777777777 energy=-0.8525737537926759 pbc="F F F"
X       10.00000000      10.00000000      10.00000000       0.34202014       0.00000000       0.00000000       0.93969262       1.00000000       2.00000000       1.00000000       2.44346095       4.51304889       0.95531637       0.00000000      -0.00000000      -0.00000000      -2.08664548
X       11.77777778      10.00000000      10.00000000       0.00000000       0.00000000       0.00000000       1.00000000       1.00000000       2.00000000       1.00000000       3.14159265      -4.51304889      -0.95531637      -0.00000000      -0.00000000      -0.00000000       0.37880400
2
Lattice="20.0 0.0 0.0 0.0 20.0 0.0 0.0 0.0 20.0" Properties=species:S:1:pos:R:3:quaternions:R:4:c_diameter\[1\]:R:1:c_diameter\[2\]:R:1:c_diameter\[3\]:R:1:angles:R:1:forces:R:3:torques:R:3 separation_distance=1.7777777777777777 energy=-0.4158265805276088 pbc="F F F"
X       10.00000000      10.00000000      10.00000000       0.17364818       0.00000000       0.00000000       0.98480775       1.00000000       2.00000000       1.00000000       2.79252680       1.97704008       0.31529162       0.00000000      -0.00000000      -0.00000000      -0.65448005
X       11.77777778      10.00000000      10.00000000       1.00000000       0.00000000       0.00000000       0.00000000       1.00000000       2.00000000       1.00000000       0.00000000      -1.97704008      -0.31529162      -0.00000000      -0.00000000      -0.00000000       0.08638941
2
Lattice="20.0 0.0 0.0 0.0 20.0 0.0 0.0 0.0 20.0" Properties=species:S:1:pos:R:3:quaternions:R:4:c_diameter\[1\]:R:1:c_diameter\[2\]:R:1:c_diameter\[3\]:R:1:angles:R:1:forces:R:3:torques:R:3 separation_distance=1.7777777777777777 energy=-0.5906434588487229 pbc="F F F"
X       10.00000000      10.00000000      10.00000000       0.17364818       0.00000000       0.00000000       0.98480775       1.00000000       2.00000000       1.00000000       2.79252680       3.05913556       0.00000000       0.00000000      -0.00000000      -0.00000000      -1.04018205
X       11.77777778      10.00000000      10.00000000       0.98480775       0.00000000       0.00000000       0.17364818       1.00000000       2.00000000       1.00000000       0.34906585      -3.05913556      -0.00000000      -0.00000000      -0.00000000      -0.00000000       1.04018205
2
Lattice="20.0 0.0 0.0 0.0 20.0 0.0 0.0 0.0 20.0" Properties=species:S:1:pos:R:3:quaternions:R:4:c_diameter\[1\]:R:1:c_diameter\[2\]:R:1:c_diameter\[3\]:R:1:angles:R:1:forces:R:3:torques:R:3 separation_distance=1.7777777777777777 energy=-1.2509024424383344 pbc="F F F"
X       10.00000000      10.00000000      10.00000000       0.17364818       0.00000000       0.00000000       0.98480775       1.00000000       2.00000000       1.00000000       2.79252680       6.20680995      -0.47984659       0.00000000      -0.00000000      -0.00000000      -2.00850968
X       11.77777778      10.00000000      10.00000000       0.93969262       0.00000000       0.00000000       0.34202014       1.00000000       2.00000000       1.00000000       0.69813170      -6.20680995       0.47984659      -0.00000000      -0.00000000      -0.00000000       2.82303953
2
Lattice="20.0 0.0 0.0 0.0 20.0 0.0 0.0 0.0 20.0" Properties=species:S:1:pos:R:3:quaternions:R:4:c_diameter\[1\]:R:1:c_diameter\[2\]:R:1:c_diameter\[3\]:R:1:angles:R:1:forces:R:3:torques:R:3 separation_distance=1.7777777777777777 energy=-0.9410292093000271 pbc="F F F"
X       10.00000000      10.00000000      10.00000000       0.17364818       0.00000000       0.00000000       0.98480775       1.00000000       2.00000000       1.00000000       2.79252680       4.84655173       1.66887691       0.00000000      -0.00000000      -0.00000000      -0.91084760
X       11.77777778      10.00000000      10.00000000       0.34202014       0.00000000       0.00000000       0.93969262       1.00000000       2.00000000       1.00000000       2.44346095      -4.84655173      -1.66887691      -0.00000000      -0.00000000      -0.00000000      -2.09599486
2
Lattice="20.0 0.0 0.0 0.0 20.0 0.0 0.0 0.0 20.0" Properties=species:S:1:pos:R:3:quaternions:R:4:c_diameter\[1\]:R:1:c_diameter\[2\]:R:1:c_diameter\[3\]:R:1:angles:R:1:forces:R:3:torques:R:3 separation_distance=1.7777777777777777 energy=-0.5078116089962618 pbc="F F F"
X       10.00000000      10.00000000      10.00000000       0.17364818       0.00000000       0.00000000       0.98480775       1.00000000       2.00000000       1.00000000       2.79252680       2.39409554       0.71998444       0.00000000      -0.00000000      -0.00000000      -0.64856961
X       11.77777778      10.00000000      10.00000000       0.17364818       0.00000000       0.00000000       0.98480775       1.00000000       2.00000000       1.00000000       2.79252680      -2.39409554      -0.71998444      -0.00000000      -0.00000000      -0.00000000      -0.64856961
2
Lattice="20.0 0.0 0.0 0.0 20.0 0.0 0.0 0.0 20.0" Properties=species:S:1:pos:R:3:quaternions:R:4:c_diameter\[1\]:R:1:c_diameter\[2\]:R:1:c_diameter\[3\]:R:1:angles:R:1:forces:R:3:torques:R:3 separation_distance=1.7777777777777777 energy=-0.41582658052760973 pbc="F F F"
X       10.00000000      10.00000000      10.00000000       0.17364818       0.00000000       0.00000000       0.98480775       1.00000000       2.00000000       1.00000000       2.79252680       1.97704008       0.31529162       0.00000000      -0.00000000      -0.00000000      -0.65448005
X       11.77777778      10.00000000      10.00000000       0.00000000       0.00000000       0.00000000       1.00000000       1.00000000       2.00000000       1.00000000       3.14159265      -1.97704008      -0.31529162      -0.00000000      -0.00000000      -0.00000000       0.08638941
2
Lattice="20.0 0.0 0.0 0.0 20.0 0.0 0.0 0.0 20.0" Properties=species:S:1:pos:R:3:quaternions:R:4:c_diameter\[1\]:R:1:c_diameter\[2\]:R:1:c_diameter\[3\]:R:1:angles:R:1:forces:R:3:torques:R:3 separation_distance=1.7777777777777777 energy=-0.3127722892517413 pbc="F F F"
X       10.00000000      10.00000000      10.00000000       0.00000000       0.00000000       0.00000000       1.00000000       1.00000000       2.00000000       1.00000000       3.14159265       1.40645083       0.00000000       0.00000000      -0.00000000      -0.00000000      -0.00000000
X       11.77777778      10.00000000      10.00000000       1.00000000       0.00000000       0.00000000       0.00000000       1.00000000       2.00000000       1.00000000       0.00000000      -1.40645083      -0.00000000      -0.00000000      -0.00000000      -0.00000000      -0.00000000
2
Lattice="20.0 0.0 0.0 0.0 20.0 0.0 0.0 0.0 20.0" Properties=species:S:1:pos:R:3:quaternions:R:4:c_diameter\[1\]:R:1:c_diameter\[2\]:R:1:c_diameter\[3\]:R:1:angles:R:1:forces:R:3:torques:R:3 separation_distance=1.7777777777777777 energy=-0.41582658052760973 pbc="F F F"
X       10.00000000      10.00000000      10.00000000       0.00000000       0.00000000       0.00000000       1.00000000       1.00000000       2.00000000       1.00000000       3.14159265       1.97704008      -0.31529162       0.00000000      -0.00000000      -0.00000000      -0.08638941
X       11.77777778      10.00000000      10.00000000       0.98480775       0.00000000       0.00000000       0.17364818       1.00000000       2.00000000       1.00000000       0.34906585      -1.97704008       0.31529162      -0.00000000      -0.00000000      -0.00000000       0.65448005
2
Lattice="20.0 0.0 0.0 0.0 20.0 0.0 0.0 0.0 20.0" Properties=species:S:1:pos:R:3:quaternions:R:4:c_diameter\[1\]:R:1:c_diameter\[2\]:R:1:c_diameter\[3\]:R:1:angles:R:1:forces:R:3:torques:R:3 separation_distance=1.7777777777777777 energy=-0.8525737537926761 pbc="F F F"
X       10.00000000      10.00000000      10.00000000       0.00000000       0.00000000       0.00000000       1.00000000       1.00000000       2.00000000       1.00000000       3.14159265       4.51304889      -0.95531637       0.00000000      -0.00000000      -0.00000000      -0.37880400
X       11.77777778      10.00000000      10.00000000       0.93969262       0.00000000       0.00000000       0.34202014       1.00000000       2.00000000       1.00000000       0.69813170      -4.51304889       0.95531637      -0.00000000      -0.00000000      -0.00000000       2.08664548
2
Lattice="20.0 0.0 0.0 0.0 20.0 0.0 0.0 0.0 20.0" Properties=species:S:1:pos:R:3:quaternions:R:4:c_diameter\[1\]:R:1:c_diameter\[2\]:R:1:c_diameter\[3\]:R:1:angles:R:1:forces:R:3:torques:R:3 separation_distance=1.7777777777777777 energy=-1.8925547649121883 pbc="F F F"
X       10.00000000      10.00000000      10.00000000       0.00000000       0.00000000       0.00000000       1.00000000       1.00000000       2.00000000       1.00000000       3.14159265       6.46760397      -1.56537632       0.00000000      -0.00000000      -0.00000000      -0.22470409
X       11.77777778      10.00000000      10.00000000       0.86602540       0.00000000       0.00000000       0.50000000       1.00000000       2.00000000       1.00000000       1.04719755      -6.46760397       1.56537632      -0.00000000      -0.00000000      -0.00000000       2.75493330
2
Lattice="20.0 0.0 0.0 0.0 20.0 0.0 0.0 0.0 20.0" Properties=species:S:1:pos:R:3:quaternions:R:4:c_diameter\[1\]:R:1:c_diameter\[2\]:R:1:c_diameter\[3\]:R:1:angles:R:1:forces:R:3:torques:R:3 separation_distance=1.7777777777777777 energy=-1.89255476491219 pbc="F F F"
X       10.00000000      10.00000000      10.00000000       0.00000000       0.00000000       0.00000000       1.00000000       1.00000000       2.00000000       1.00000000       3.14159265       6.46760397       1.56537632       0.00000000      -0.00000000      -0.00000000       0.22470409
X       11.77777778      10.00000000      10.00000000       0.50000000       0.00000000       0.00000000       0.86602540       1.00000000       2.00000000       1.00000000       2.09439510      -6.46760397      -1.56537632      -0.00000000      -0.00000000      -0.00000000      -2.75493330
2
Lattice="20.0 0.0 0.0 0.0 20.0 0.0 0.0 0.0 20.0" Properties=species:S:1:pos:R:3:quaternions:R:4:c_diameter\[1\]:R:1:c_diameter\[2\]:R:1:c_diameter\[3\]:R:1:angles:R:1:forces:R:3:torques:R:3 separation_distance=1.7777777777777777 energy=-0.8525737537926759 pbc="F F F"
X       10.00000000      10.00000000      10.00000000       0.00000000       0.00000000       0.00000000       1.00000000       1.00000000       2.00000000       1.00000000       3.14159265       4.51304889       0.95531637       0.00000000      -0.00000000      -0.00000000       0.37880400
X       11.77777778      10.00000000      10.00000000       0.34202014       0.00000000       0.00000000       0.93969262       1.00000000       2.00000000       1.00000000       2.44346095      -4.51304889      -0.95531637      -0.00000000      -0.00000000      -0.00000000      -2.08664548
2
Lattice="20.0 0.0 0.0 0.0 20.0 0.0 0.0 0.0 20.0" Properties=species:S:1:pos:R:3:quaternions:R:4:c_diameter\[1\]:R:1:c_diameter\[2\]:R:1:c_diameter\[3\]:R:1:angles:R:1:forces:R:3:torques:R:3 separation_distance=1.7777777777777777 energy=-0.41582658052760973 pbc="F F F"
X       10.00000000      10.00000000      10.00000000       0.00000000       0.00000000       0.00000000       1.00000000       1.00000000       2.00000000       1.00000000       3.14159265       1.97704008       0.31529162       0.00000000      -0.00000000      -0.00000000       0.08638941
X       11.77777778      10.00000000      10.00000000       0.17364818       0.00000000       0.00000000       0.98480775       1.00000000       2.00000000       1.00000000       2.79252680      -1.97704008      -0.31529162      -0.00000000      -0.00000000      -0.00000000      -0.65448005
2
Lattice="20.0 0.0 0.0 0.0 20.0 0.0 0.0 0.0 20.0" Properties=species:S:1:pos:R:3:quaternions:R:4:c_diameter\[1\]:R:1:c_diameter\[2\]:R:1:c_diameter\[3\]:R:1:angles:R:1:forces:R:3:torques:R:3 separation_distance=1.7777777777777777 energy=-0.3127722892517413 pbc="F F F"
X       10.00000000      10.00000000      10.00000000       0.00000000       0.00000000       0.00000000       1.00000000       1.00000000       2.00000000       1.00000000       3.14159265       1.40645083       0.00000000       0.00000000      -0.00000000      -0.00000000      -0.00000000
X       11.77777778      10.00000000      10.00000000       0.00000000       0.00000000       0.00000000       1.00000000       1.00000000       2.00000000       1.00000000       3.14159265      -1.40645083      -0.00000000      -0.00000000      -0.00000000      -0.00000000      -0.00000000
2
Lattice="20.0 0.0 0.0 0.0 20.0 0.0 0.0 0.0 20.0" Properties=species:S:1:pos:R:3:quaternions:R:4:c_diameter\[1\]:R:1:c_diameter\[2\]:R:1:c_diameter\[3\]:R:1:angles:R:1:forces:R:3:torques:R:3 separation_distance=1.9333333333333333 energy=-0.1655426352374722 pbc="F F F"
X       10.00000000      10.00000000      10.00000000       1.00000000       0.00000000       0.00000000       0.00000000       1.00000000       2.00000000       1.00000000       0.00000000       0.61421797       0.00000000       0.00000000      -0.00000000      -0.00000000      -0.00000000
X       11.93333333      10.00000000      10.00000000       1.00000000       0.00000000       0.00000000       0.00000000       1.00000000       2.00000000       1.00000000       0.00000000      -0.61421797      -0.00000000      -0.00000000      -0.00000000      -0.00000000      -0.00000000
2
Lattice="20.0 0.0 0.0 0.0 20.0 0.0 0.0 0.0 20.0" Properties=species:S:1:pos:R:3:quaternions:R:4:c_diameter\[1\]:R:1:c_diameter\[2\]:R:1:c_diameter\[3\]:R:1:angles:R:1:forces:R:3:torques:R:3 separation_distance=1.9333333333333333 energy=-0.21188902508469945 pbc="F F F"
X       10.00000000      10.00000000      10.00000000       1.00000000       0.00000000       0.00000000       0.00000000       1.00000000       2.00000000       1.00000000       0.00000000       0.83294124      -0.13777455       0.00000000      -0.00000000      -0.00000000      -0.01762341
X       11.93333333      10.00000000      10.00000000       0.98480775       0.00000000       0.00000000       0.17364818       1.00000000       2.00000000       1.00000000       0.34906585      -0.83294124       0.13777455      -0.00000000      -0.00000000      -0.00000000       0.28649380
2
Lattice="20.0 0.0 0.0 0.0 20.0 0.0 0.0 0.0 20.0" Properties=species:S:1:pos:R:3:quaternions:R:4:c_diameter\[1\]:R:1:c_diameter\[2\]:R:1:c_diameter\[3\]:R:1:angles:R:1:forces:R:3:torques:R:3 separation_distance=1.9333333333333333 energy=-0.39348150437879126 pbc="F F F"
X       10.00000000      10.00000000      10.00000000       1.00000000       0.00000000       0.00000000       0.00000000       1.00000000       2.00000000       1.00000000       0.00000000       1.79492211      -0.37447833       0.00000000      -0.00000000      -0.00000000      -0.11304186
X       11.93333333      10.00000000      10.00000000       0.93969262       0.00000000       0.00000000       0.34202014       1.00000000       2.00000000       1.00000000       0.69813170      -1.79492211       0.37447833      -0.00000000      -0.00000000      -0.00000000       0.84322439
2
Lattice="20.0 0.0 0.0 0.0 20.0 0.0 0.0 0.0 20.0" Properties=species:S:1:pos:R:3:quaternions:R:4:c_diameter\[1\]:R:1:c_diameter\[2\]:R:1:c_diameter\[3\]:R:1:angles:R:1:forces:R:3:torques:R:3 separation_distance=1.9333333333333333 energy=-0.8608502086187273 pbc="F F F"
X       10.00000000      10.00000000      10.00000000       1.00000000       0.00000000       0.00000000       0.00000000       1.00000000       2.00000000       1.00000000       0.00000000       4.58402169      -0.80330305       0.00000000      -0.00000000      -0.00000000      -0.34225663
X       11.93333333      10.00000000      10.00000000       0.86602540       0.00000000       0.00000000       0.50000000       1.00000000       2.00000000       1.00000000       1.04719755      -4.58402169       0.80330305      -0.00000000      -0.00000000      -0.00000000       1.87211812
2
Lattice="20.0 0.0 0.0 0.0 20.0 0.0 0.0 0.0 20.0" Properties=species:S:1:pos:R:3:quaternions:R:4:c_diameter\[1\]:R:1:c_diameter\[2\]:R:1:c_diameter\[3\]:R:1:angles:R:1:forces:R:3:torques:R:3 separation_distance=1.9333333333333333 energy=-0.8608502086187274 pbc="F F F"
X       10.00000000      10.00000000      10.00000000       1.00000000       0.00000000       0.00000000       0.00000000       1.00000000       2.00000000       1.00000000       0.00000000       4.58402169       0.80330305       0.00000000      -0.00000000      -0.00000000       0.34225663
X       11.93333333      10.00000000      10.00000000       0.50000000       0.00000000       0.00000000       0.86602540       1.00000000       2.00000000       1.00000000       2.09439510      -4.58402169      -0.80330305      -0.00000000      -0.00000000      -0.00000000      -1.87211812
2
Lattice="20.0 0.0 0.0 0.0 20.0 0.0 0.0 0.0 20.0" Properties=species:S:1:pos:R:3:quaternions:R:4:c_diameter\[1\]:R:1:c_diameter\[2\]:R:1:c_diameter\[3\]:R:1:angles:R:1:forces:R:3:torques:R:3 separation_distance=1.9333333333333333 energy=-0.39348150437879154 pbc="F F F"
X       10.00000000      10.00000000      10.00000000       1.00000000       0.00000000       0.00000000       0.00000000       1.00000000       2.00000000       1.00000000       0.00000000       1.79492211       0.37447833       0.00000000      -0.00000000      -0.00000000       0.11304186
X       11.93333333      10.00000000      10.00000000       0.34202014       0.00000000       0.00000000       0.93969262       1.00000000       2.00000000       1.00000000       2.44346095      -1.79492211      -0.37447833      -0.00000000      -0.00000000      -0.00000000      -0.84322439
2
Lattice="20.0 0.0 0.0 0.0 20.0 0.0 0.0 0.0 20.0" Properties=species:S:1:pos:R:3:quaternions:R:4:c_diameter\[1\]:R:1:c_diameter\[2\]:R:1:c_diameter\[3\]:R:1:angles:R:1:forces:R:3:torques:R:3 separation_distance=1.9333333333333333 energy=-0.2118890250846994 pbc="F F F"
X       10.00000000      10.00000000      10.00000000       1.00000000       0.00000000       0.00000000       0.00000000       1.00000000       2.00000000       1.00000000       0.00000000       0.83294124       0.13777455       0.00000000      -0.00000000      -0.00000000       0.01762341
X       11.93333333      10.00000000      10.00000000       0.17364818       0.00000000       0.00000000       0.98480775       1.00000000       2.00000000       1.00000000       2.79252680      -0.83294124      -0.13777455      -0.00000000      -0.00000000      -0.00000000      -0.28649380
2
Lattice="20.0 0.0 0.0 0.0 20.0 0.0 0.0 0.0 20.0" Properties=species:S:1:pos:R:3:quaternions:R:4:c_diameter\[1\]:R:1:c_diameter\[2\]:R:1:c_diameter\[3\]:R:1:angles:R:1:forces:R:3:torques:R:3 separation_distance=1.9333333333333333 energy=-0.1655426352374722 pbc="F F F"
X       10.00000000      10.00000000      10.00000000       1.00000000       0.00000000       0.00000000       0.00000000       1.00000000       2.00000000       1.00000000       0.00000000       0.61421797       0.00000000       0.00000000      -0.00000000      -0.00000000      -0.00000000
X       11.93333333      10.00000000      10.00000000       0.00000000       0.00000000       0.00000000       1.00000000       1.00000000       2.00000000       1.00000000       3.14159265      -0.61421797      -0.00000000      -0.00000000      -0.00000000      -0.00000000      -0.00000000
2
Lattice="20.0 0.0 0.0 0.0 20.0 0.0 0.0 0.0 20.0" Properties=species:S:1:pos:R:3:quaternions:R:4:c_diameter\[1\]:R:1:c_diameter\[2\]:R:1:c_diameter\[3\]:R:1:angles:R:1:forces:R:3:torques:R:3 separation_distance=1.9333333333333333 energy=-0.21188902508469945 pbc="F F F"
X       10.00000000      10.00000000      10.00000000       0.98480775       0.00000000       0.00000000       0.17364818       1.00000000       2.00000000       1.00000000       0.34906585       0.83294124      -0.13777455       0.00000000      -0.00000000      -0.00000000       0.28649380
X       11.93333333      10.00000000      10.00000000       1.00000000       0.00000000       0.00000000       0.00000000       1.00000000       2.00000000       1.00000000       0.00000000      -0.83294124       0.13777455      -0.00000000      -0.00000000      -0.00000000      -0.01762341
2
Lattice="20.0 0.0 0.0 0.0 20.0 0.0 0.0 0.0 20.0" Properties=species:S:1:pos:R:3:quaternions:R:4:c_diameter\[1\]:R:1:c_diameter\[2\]:R:1:c_diameter\[3\]:R:1:angles:R:1:forces:R:3:torques:R:3 separation_distance=1.9333333333333333 energy=-0.2603222527938925 pbc="F F F"
X       10.00000000      10.00000000      10.00000000       0.98480775       0.00000000       0.00000000       0.17364818       1.00000000       2.00000000       1.00000000       0.34906585       1.01412985      -0.31396684       0.00000000      -0.00000000      -0.00000000       0.30625036
X       11.93333333      10.00000000      10.00000000       0.98480775       0.00000000       0.00000000       0.17364818       1.00000000       2.00000000       1.00000000       0.34906585      -1.01412985       0.31396684      -0.00000000      -0.00000000      -0.00000000       0.30625036
2
Lattice="20.0 0.0 0.0 0.0 20.0 0.0 0.0 0.0 20.0" Properties=species:S:1:pos:R:3:quaternions:R:4:c_diameter\[1\]:R:1:c_diameter\[2\]:R:1:c_diameter\[3\]:R:1:angles:R:1:forces:R:3:torques:R:3 separation_distance=1.9333333333333333 energy=-0.44907553395858674 pbc="F F F"
X       10.00000000      10.00000000      10.00000000       0.98480775       0.00000000       0.00000000       0.17364818       1.00000000       2.00000000       1.00000000       0.34906585       1.94583694      -0.66626406       0.00000000      -0.00000000      -0.00000000       0.43955663
X       11.93333333      10.00000000      10.00000000       0.93969262       0.00000000       0.00000000       0.34202014       1.00000000       2.00000000       1.00000000       0.69813170      -1.94583694       0.66626406      -0.00000000      -0.00000000      -0.00000000       0.86298990
2
Lattice="20.0 0.0 0.0 0.0 20.0 0.0 0.0 0.0 20.0" Properties=species:S:1:pos:R:3:quaternions:R:4:c_diameter\[1\]:R:1:c_diameter\[2\]:R:1:c_diameter\[3\]:R:1:angles:R:1:forces:R:3:torques:R:3 separation_distance=1.9333333333333333 energy=-0.939925159662902 pbc="F F F"
X       10.00000000      10.00000000      10.00000000       0.98480775       0.00000000       0.00000000       0.17364818       1.00000000       2.00000000       1.00000000       0.34906585       4.83355829      -1.49959904       0.00000000      -0.00000000      -0.00000000       0.82062134
X       11.93333333      10.00000000      10.00000000       0.86602540       0.00000000       0.00000000       0.50000000       1.00000000       2.00000000       1.00000000       1.04719755      -4.83355829       1.49959904      -0.00000000      -0.00000000      -0.00000000       2.08446881
2
Lattice="20.0 0.0 0.0 0.0 20.0 0.0 0.0 0.0 20.0" Properties=species:S:1:pos:R:3:quaternions:R:4:c_diameter\[1\]:R:1:c_diameter\[2\]:R:1:c_diameter\[3\]:R:1:angles:R:1:forces:R:3:torques:R:3 separation_distance=1.9333333333333333 energy=-1.2281092316234854 pbc="F F F"
X       10.00000000      10.00000000      10.00000000       0.98480775       0.00000000       0.00000000       0.17364818       1.00000000       2.00000000       1.00000000       0.34906585       6.72199074       0.31425702       0.00000000      -0.00000000      -0.00000000       1.97369671
X       11.93333333      10.00000000      10.00000000       0.50000000       0.00000000       0.00000000       0.86602540       1.00000000       2.00000000       1.00000000       2.09439510      -6.72199074      -0.31425702      -0.00000000      -0.00000000      -0.00000000      -2.51783915
2
Lattice="20.0 0.0 0.0 0.0 20.0 0.0 0.0 0.0 20.0" Properties=species:S:1:pos:R:3:quaternions:R:4:c_diameter\[1\]:R:1:c_diameter\[2\]:R:1:c_diameter\[3\]:R:1:angles:R:1:forces:R:3:torques:R:3 separation_distance=1.9333333333333333 energy=-0.5514026281786575 pbc="F F F"
X       10.00000000      10.00000000      10.00000000       0.98480775       0.00000000       0.00000000       0.17364818       1.00000000       2.00000000       1.00000000       0.34906585       2.79617049       0.19364846       0.00000000      -0.00000000      -0.00000000       0.89758462
X       11.93333333      10.00000000      10.00000000       0.34202014       0.00000000       0.00000000       0.93969262       1.00000000       2.00000000       1.00000000       2.44346095      -2.79617049      -0.19364846      -0.00000000      -0.00000000      -0.00000000      -1.26941257
2
Lattice="20.0 0.0 0.0 0.0 20.0 0.0 0.0 0.0 20.0" Properties=species:S:1:pos:R:3:quaternions:R:4:c_diameter\[1\]:R:1:c_diameter\[2\]:R:1:c_diameter\[3\]:R:1:angles:R:1:forces:R:3:torques:R:3 separation_distance=1.9333333333333333 energy=-0.2802513562824183 pbc="F F F"
X       10.00000000      10.00000000      10.00000000       0.98480775       0.00000000       0.00000000       0.17364818       1.00000000       2.00000000       1.00000000       0.34906585       1.22483060       0.00000000       0.00000000      -0.00000000      -0.00000000       0.41776960
X       11.93333333      10.00000000      10.00000000       0.17364818       0.00000000       0.00000000       0.98480775       1.00000000       2.00000000       1.00000000       2.79252680      -1.22483060      -0.00000000      -0.00000000      -0.00000000      -0.00000000      -0.41776960
2
Lattice="20.0 0.0 0.0 0.0 20.0 0.0 0.0 0.0 20.0" Properties=species:S:1:pos:R:3:quaternions:R:4:c_diameter\[1\]:R:1:c_diameter\[2\]:R:1:c_diameter\[3\]:R:1:angles:R:1:forces:R:3:torques:R:3 separation_distance=1.9333333333333333 energy=-0.21188902508469945 pbc="F F F"
X       10.00000000      10.00000000      10.00000000       0.98480775       0.00000000       0.00000000       0.17364818       1.00000000       2.00000000       1.00000000       0.34906585       0.83294124      -0.13777455       0.00000000      -0.00000000      -0.00000000       0.28649380
X       11.93333333      10.00000000      10.00000000       0.00000000       0.00000000       0.00000000       1.00000000       1.00000000       2.00000000       1.00000000       3.14159265      -0.83294124       0.13777455      -0.00000000      -0.00000000      -0.00000000      -0.01762341
2
Lattice="20.0 0.0 0.0 0.0 20.0 0.0 0.0 0.0 20.0" Properties=species:S:1:pos:R:3:quaternions:R:4:c_diameter\[1\]:R:1:c_diameter\[2\]:R:1:c_diameter\[3\]:R:1:angles:R:1:forces:R:3:torques:R:3 separation_distance=1.9333333333333333 energy=-0.39348150437879126 pbc="F F F"
X       10.00000000      10.00000000      10.00000000       0.93969262       0.00000000       0.00000000       0.34202014       1.00000000       2.00000000       1.00000000       0.69813170       1.79492211      -0.37447833       0.00000000      -0.00000000      -0.00000000       0.84322439
X       11.93333333      10.00000000      10.00000000       1.00000000       0.00000000       0.00000000       0.00000000       1.00000000       2.00000000       1.00000000       0.00000000      -1.79492211       0.37447833      -0.00000000      -0.00000000      -0.00000000      -0.11304186
2
Lattice="20.0 0.0 0.0 0.0 20.0 0.0 0.0 0.0 20.0" Properties=species:S:1:pos:R:3:quaternions:R:4:c_diameter\[1\]:R:1:c_diameter\[2\]:R:1:c_diameter\[3\]:R:1:angles:R:1:forces:R:3:torques:R:3 separation_distance=1.9333333333333333 energy=-0.44907553395858674 pbc="F F F"
X       10.00000000      10.00000000      10.00000000       0.93969262       0.00000000       0.00000000       0.34202014       1.00000000       2.00000000       1.00000000       0.69813170       1.94583694      -0.66626406       0.00000000      -0.00000000      -0.00000000       0.86298990
X       11.93333333      10.00000000      10.00000000       0.98480775       0.00000000       0.00000000       0.17364818       1.00000000       2.00000000       1.00000000       0.34906585      -1.94583694       0.66626406      -0.00000000      -0.00000000      -0.00000000       0.43955663
2
Lattice="20.0 0.0 0.0 0.0 20.0 0.0 0.0 0.0 20.0" Properties=species:S:1:pos:R:3:quaternions:R:4:c_diameter\[1\]:R:1:c_diameter\[2\]:R:1:c_diameter\[3\]:R:1:angles:R:1:forces:R:3:torques:R:3 separation_distance=1.9333333333333333 energy=-0.7342573636711046 pbc="F F F"
X       10.00000000      10.00000000      10.00000000       0.93969262       0.00000000       0.00000000       0.34202014       1.00000000       2.00000000       1.00000000       0.69813170       3.33740928      -1.35993742       0.00000000      -0.00000000      -0.00000000       1.33270183
X       11.93333333      10.00000000      10.00000000       0.93969262       0.00000000       0.00000000       0.34202014       1.00000000       2.00000000       1.00000000       0.69813170      -3.33740928       1.35993742      -0.00000000      -0.00000000      -0.00000000       1.33270183
2
Lattice="20.0 0.0 0.0 0.0 20.0 0.0 0.0 0.0 20.0" Properties=species:S:1:pos:R:3:quaternions:R:4:c_diameter\[1\]:R:1:c_diameter\[2\]:R:1:c_diameter\[3\]:R:1:angles:R:1:forces:R:3:torques:R:3 separation_distance=1.9333333333333333 energy=-3.5033498008788726 pbc="F F F"
X       10.00000000      10.00000000      10.00000000       0.93969262       0.00000000       0.00000000       0.34202014       1.00000000       2.00000000       1.00000000       0.69813170       5.97365321      -1.71949226       0.00000000      -0.00000000      -0.00000000       5.01531157
X       11.93333333      10.00000000      10.00000000       0.64278761       0.00000000       0.00000000       0.76604444       1.00000000       2.00000000       1.00000000       1.74532925      -5.97365321       1.71949226      -0.00000000      -0.00000000      -0.00000000      -1.94081802
2
Lattice="20.0 0.0 0.0 0.0 20.0 0.0 0.0 0.0 20.0" Properties=species:S:1:pos:R:3:quaternions:R:4:c_diameter\[1\]:R:1:c_diameter\[2\]:R:1:c_diameter\[3\]:R:1:angles:R:1:forces:R:3:torques:R:3 separation_distance=1.9333333333333333 energy=-1.1229372078672828 pbc="F F F"
X       10.00000000      10.00000000      10.00000000       0.93969262       0.00000000       0.00000000       0.34202014       1.00000000       2.00000000       1.00000000       0.69813170       6.15292559       0.00000000       0.00000000      -0.00000000      -0.00000000       2.61471795
X       11.93333333      10.00000000      10.00000000       0.34202014       0.00000000       0.00000000       0.93969262       1.00000000       2.00000000       1.00000000       2.44346095      -6.15292559      -0.00000000      -0.00000000      -0.00000000      -0.00000000      -2.61471795
2
Lattice="20.0 0.0 0.0 0.0 20.0 0.0 0.0 0.0 20.0" Properties=species:S:1:pos:R:3:quaternions:R:4:c_diameter\[1\]:R:1:c_diameter\[2\]:R:1:c_diameter\[3\]:R:1:angles:R:1:forces:R:3:torques:R:3 separation_distance=1.9333333333333333 energy=-0.5514026281786581 pbc="F F F"
X       10.00000000      10.00000000      10.00000000       0.93969262       0.00000000       0.00000000       0.34202014       1.00000000       2.00000000       1.00000000       0.69813170       2.79617049      -0.19364846       0.00000000      -0.00000000      -0.00000000       1.26941257
X       11.93333333      10.00000000      10.00000000       0.17364818       0.00000000       0.00000000       0.98480775       1.00000000       2.00000000       1.00000000       2.79252680      -2.79617049       0.19364846      -0.00000000      -0.00000000      -0.00000000      -0.89758462
2
Lattice="20.0 0.0 0.0 0.0 20.0 0.0 0.0 0.0 20.0" Properties=species:S:1:pos:R:3:quaternions:R:4:c_diameter\[1\]:R:1:c_diameter\[2\]:R:1:c_diameter\[3\]:R:1:angles:R:1:forces:R:3:torques:R:3 separation_distance=1.9333333333333333 energy=-0.39348150437879137 pbc="F F F"
X       10.00000000      10.00000000      10.00000000       0.93969262       0.00000000       0.00000000       0.34202014       1.00000000       2.00000000       1.00000000       0.69813170       1.79492211      -0.37447833       0.00000000      -0.00000000      -0.00000000       0.84322439
X       11.93333333      10.00000000      10.00000000       0.00000000       0.00000000       0.00000000       1.00000000       1.00000000       2.00000000       1.00000000       3.14159265      -1.79492211       0.37447833      -0.00000000      -0.00000000      -0.00000000      -0.11304186
2
Lattice="20.0 0.0 0.0 0.0 20.0 0.0 0.0 0.0 20.0" Properties=species:S:1:pos:R:3:quaternions:R:4:c_diameter\[1\]:R:1:c_diameter\[2\]:R:1:c_diameter\[3\]:R:1:angles:R:1:forces:R:3:torques:R:3 separation_distance=1.9333333333333333 energy=-0.8608502086187273 pbc="F F F"
X       10.00000000      10.00000000      10.00000000       0.86602540       0.00000000       0.00000000       0.50000000       1.00000000       2.00000000       1.00000000       1.04719755       4.58402169      -0.80330305       0.00000000      -0.00000000      -0.00000000       1.87211812
X       11.93333333      10.00000000      10.00000000       1.00000000       0.00000000       0.00000000       0.00000000       1.00000000       2.00000000       1.00000000       0.00000000      -4.58402169       0.80330305      -0.00000000      -0.00000000      -0.00000000      -0.34225663
2
Lattice="20.0 0.0 0.0 0.0 20.0 0.0 0.0 0.0 20.0" Properties=species:S:1:pos:R:3:quaternions:R:4:c_diameter\[1\]:R:1:c_diameter\[2\]:R:1:c_diameter\[3\]:R:1:angles:R:1:forces:R:3:torques:R:3 separation_distance=1.9333333333333333 energy=-0.939925159662902 pbc="F F F"
X       10.00000000      10.00000000      10.00000000       0.86602540       0.00000000       0.00000000       0.50000000       1.00000000       2.00000000       1.00000000       1.04719755       4.83355829      -1.49959904       0.00000000      -0.00000000      -0.00000000       2.08446881
X       11.93333333      10.00000000      10.00000000       0.98480775       0.00000000       0.00000000       0.17364818       1.00000000       2.00000000       1.00000000       0.34906585      -4.83355829       1.49959904      -0.00000000      -0.00000000      -0.00000000       0.82062134
2
Lattice="20.0 0.0 0.0 0.0 20.0 0.0 0.0 0.0 20.0" Properties=species:S:1:pos:R:3:quaternions:R:4:c_diameter\[1\]:R:1:c_diameter\[2\]:R:1:c_diameter\[3\]:R:1:angles:R:1:forces:R:3:torques:R:3 separation_distance=1.9333333333333333 energy=-6.392452773957481 pbc="F F F"
X       10.00000000      10.00000000      10.00000000       0.86602540       0.00000000       0.00000000       0.50000000       1.00000000       2.00000000       1.00000000       1.04719755       4.49133577      -5.08159454       0.00000000      -0.00000000      -0.00000000       6.50109717
X       11.93333333      10.00000000      10.00000000       0.76604444       0.00000000       0.00000000       0.64278761       1.00000000       2.00000000       1.00000000       1.39626340      -4.49133577       5.08159454      -0.00000000      -0.00000000      -0.00000000       0.08299138
2
Lattice="20.0 0.0 0.0 0.0 20.0 0.0 0.0 0.0 20.0" Properties=species:S:1:pos:R:3:quaternions:R:4:c_diameter\[1\]:R:1:c_diameter\[2\]:R:1:c_diameter\[3\]:R:1:angles:R:1:forces:R:3:torques:R:3 separation_distance=1.9333333333333333 energy=-1.2281092316234856 pbc="F F F"
X       10.00000000      10.00000000      10.00000000       0.86602540       0.00000000       0.00000000       0.50000000       1.00000000       2.00000000       1.00000000       1.04719755       6.72199074      -0.31425702       0.00000000      -0.00000000      -0.00000000       2.51783915
X       11.93333333      10.00000000      10.00000000       0.17364818       0.00000000       0.00000000       0.98480775       1.00000000       2.00000000       1.00000000       2.79252680      -6.72199074       0.31425702      -0.00000000      -0.00000000      -0.00000000      -1.97369671
2
Lattice="20.0 0.0 0.0 0.0 20.0 0.0 0.0 0.0 20.0" Properties=species:S:1:pos:R:3:quaternions:R:4:c_diameter\[1\]:R:1:c_diameter\[2\]:R:1:c_diameter\[3\]:R:1:angles:R:1:forces:R:3:torques:R:3 separation_distance=1.9333333333333333 energy=-0.8608502086187273 pbc="F F F"
X       10.00000000      10.00000000      10.00000000       0.86602540       0.00000000       0.00000000       0.50000000       1.00000000       2.00000000       1.00000000       1.04719755       4.58402169      -0.80330305       0.00000000      -0.00000000      -0.00000000       1.87211812
X       11.93333333      10.00000000      10.00000000       0.00000000       0.00000000       0.00000000       1.00000000       1.00000000       2.00000000       1.00000000       3.14159265      -4.58402169       0.80330305      -0.00000000      -0.00000000      -0.00000000      -0.34225663
2
Lattice="20.0 0.0 0.0 0.0 20.0 0.0 0.0 0.0 20.0" Properties=species:S:1:pos:R:3:quaternions:R:4:c_diameter\[1\]:R:1:c_diameter\[2\]:R:1:c_diameter\[3\]:R:1:angles:R:1:forces:R:3:torques:R:3 separation_distance=1.9333333333333333 energy=-6.392452773957481 pbc="F F F"
X       10.00000000      10.00000000      10.00000000       0.76604444       0.00000000       0.00000000       0.64278761       1.00000000       2.00000000       1.00000000       1.39626340       4.49133577      -5.08159454       0.00000000      -0.00000000      -0.00000000       0.08299138
X       11.93333333      10.00000000      10.00000000       0.86602540       0.00000000       0.00000000       0.50000000       1.00000000       2.00000000       1.00000000       1.04719755      -4.49133577       5.08159454      -0.00000000      -0.00000000      -0.00000000       6.50109717
2
Lattice="20.0 0.0 0.0 0.0 20.0 0.0 0.0 0.0 20.0" Properties=species:S:1:pos:R:3:quaternions:R:4:c_diameter\[1\]:R:1:c_diameter\[2\]:R:1:c_diameter\[3\]:R:1:angles:R:1:forces:R:3:torques:R:3 separation_distance=1.9333333333333333 energy=-3.503349800878874 pbc="F F F"
X       10.00000000      10.00000000      10.00000000       0.76604444       0.00000000       0.00000000       0.64278761       1.00000000       2.00000000       1.00000000       1.39626340       5.97365321       1.71949226       0.00000000      -0.00000000      -0.00000000       1.94081802
X       11.93333333      10.00000000      10.00000000       0.34202014       0.00000000       0.00000000       0.93969262       1.00000000       2.00000000       1.00000000       2.44346095      -5.97365321      -1.71949226      -0.00000000      -0.00000000      -0.00000000      -5.01531157
2
Lattice="20.0 0.0 0.0 0.0 20.0 0.0 0.0 0.0 20.0" Properties=species:S:1:pos:R:3:quaternions:R:4:c_diameter\[1\]:R:1:c_diameter\[2\]:R:1:c_diameter\[3\]:R:1:angles:R:1:forces:R:3:torques:R:3 separation_distance=1.9333333333333333 energy=-3.5033498008788726 pbc="F F F"
X       10.00000000      10.00000000      10.00000000       0.64278761       0.00000000       0.00000000       0.76604444       1.00000000       2.00000000       1.00000000       1.74532925       5.97365321      -1.71949226       0.00000000      -0.00000000      -0.00000000      -1.94081802
X       11.93333333      10.00000000      10.00000000       0.93969262       0.00000000       0.00000000       0.34202014       1.00000000       2.00000000       1.00000000       0.69813170      -5.97365321       1.71949226      -0.00000000      -0.00000000      -0.00000000       5.01531157
2
Lattice="20.0 0.0 0.0 0.0 20.0 0.0 0.0 0.0 20.0" Properties=species:S:1:pos:R:3:quaternions:R:4:c_diameter\[1\]:R:1:c_diameter\[2\]:R:1:c_diameter\[3\]:R:1:angles:R:1:forces:R:3:torques:R:3 separation_distance=1.9333333333333333 energy=-6.392452773957481 pbc="F F F"
X       10.00000000      10.00000000      10.00000000       0.64278761       0.00000000       0.00000000       0.76604444       1.00000000       2.00000000       1.00000000       1.74532925       4.49133577       5.08159454       0.00000000      -0.00000000      -0.00000000      -0.08299138
X       11.93333333      10.00000000      10.00000000       0.50000000       0.00000000       0.00000000       0.86602540       1.00000000       2.00000000       1.00000000       2.09439510      -4.49133577      -5.08159454      -0.00000000      -0.00000000      -0.00000000      -6.50109717
2
Lattice="20.0 0.0 0.0 0.0 20.0 0.0 0.0 0.0 20.0" Properties=species:S:1:pos:R:3:quaternions:R:4:c_diameter\[1\]:R:1:c_diameter\[2\]:R:1:c_diameter\[3\]:R:1:angles:R:1:forces:R:3:torques:R:3 separation_distance=1.9333333333333333 energy=-0.8608502086187274 pbc="F F F"
X       10.00000000      10.00000000      10.00000000       0.50000000       0.00000000       0.00000000       0.86602540       1.00000000       2.00000000       1.00000000       2.09439510       4.58402169       0.80330305       0.00000000      -0.00000000      -0.00000000      -1.87211812
X       11.93333333      10.00000000      10.00000000       1.00000000       0.00000000       0.00000000       0.00000000       1.00000000       2.00000000       1.00000000       0.00000000      -4.58402169      -0.80330305      -0.00000000      -0.00000000      -0.00000000       0.34225663
2
Lattice="20.0 0.0 0.0 0.0 20.0 0.0 0.0 0.0 20.0" Properties=species:S:1:pos:R:3:quaternions:R:4:c_diameter\[1\]:R:1:c_diameter\[2\]:R:1:c_diameter\[3\]:R:1:angles:R:1:forces:R:3:torques:R:3 separation_distance=1.9333333333333333 energy=-1.2281092316234854 pbc="F F F"
X       10.00000000      10.00000000      10.00000000       0.50000000       0.00000000       0.00000000       0.86602540       1.00000000       2.00000000       1.00000000       2.09439510       6.72199074       0.31425702       0.00000000      -0.00000000      -0.00000000      -2.51783915
X       11.93333333      10.00000000      10.00000000       0.98480775       0.00000000       0.00000000       0.17364818       1.00000000       2.00000000       1.00000000       0.34906585      -6.72199074      -0.31425702      -0.00000000      -0.00000000      -0.00000000       1.97369671
2
Lattice="20.0 0.0 0.0 0.0 20.0 0.0 0.0 0.0 20.0" Properties=species:S:1:pos:R:3:quaternions:R:4:c_diameter\[1\]:R:1:c_diameter\[2\]:R:1:c_diameter\[3\]:R:1:angles:R:1:forces:R:3:torques:R:3 separation_distance=1.9333333333333333 energy=-6.392452773957481 pbc="F F F"
X       10.00000000      10.00000000      10.00000000       0.50000000       0.00000000       0.00000000       0.86602540       1.00000000       2.00000000       1.00000000       2.09439510       4.49133577       5.08159454       0.00000000      -0.00000000      -0.00000000      -6.50109717
X       11.93333333      10.00000000      10.00000000       0.64278761       0.00000000       0.00000000       0.76604444       1.00000000       2.00000000       1.00000000       1.74532925      -4.49133577      -5.08159454      -0.00000000      -0.00000000      -0.00000000      -0.08299138
2
Lattice="20.0 0.0 0.0 0.0 20.0 0.0 0.0 0.0 20.0" Properties=species:S:1:pos:R:3:quaternions:R:4:c_diameter\[1\]:R:1:c_diameter\[2\]:R:1:c_diameter\[3\]:R:1:angles:R:1:forces:R:3:torques:R:3 separation_distance=1.9333333333333333 energy=-0.9399251596629044 pbc="F F F"
X       10.00000000      10.00000000      10.00000000       0.50000000       0.00000000       0.00000000       0.86602540       1.00000000       2.00000000       1.00000000       2.09439510       4.83355829       1.49959904       0.00000000      -0.00000000      -0.00000000      -2.08446881
X       11.93333333      10.00000000      10.00000000       0.17364818       0.00000000       0.00000000       0.98480775       1.00000000       2.00000000       1.00000000       2.79252680      -4.83355829      -1.49959904      -0.00000000      -0.00000000      -0.00000000      -0.82062134
2
Lattice="20.0 0.0 0.0 0.0 20.0 0.0 0.0 0.0 20.0" Properties=species:S:1:pos:R:3:quaternions:R:4:c_diameter\[1\]:R:1:c_diameter\[2\]:R:1:c_diameter\[3\]:R:1:angles:R:1:forces:R:3:torques:R:3 separation_distance=1.9333333333333333 energy=-0.8608502086187275 pbc="F F F"
X       10.00000000      10.00000000      10.00000000       0.50000000       0.00000000       0.00000000       0.86602540       1.00000000       2.00000000       1.00000000       2.09439510       4.58402169       0.80330305       0.00000000      -0.00000000      -0.00000000      -1.87211812
X       11.93333333      10.00000000      10.00000000       0.00000000       0.00000000       0.00000000       1.00000000       1.00000000       2.00000000       1.00000000       3.14159265      -4.58402169      -0.80330305      -0.00000000      -0.00000000      -0.00000000       0.34225663
2
Lattice="20.0 0.0 0.0 0.0 20.0 0.0 0.0 0.0 20.0" Properties=species:S:1:pos:R:3:quaternions:R:4:c_diameter\[1\]:R:1:c_diameter\[2\]:R:1:c_diameter\[3\]:R:1:angles:R:1:forces:R:3:torques:R:3 separation_distance=1.9333333333333333 energy=-0.39348150437879154 pbc="F F F"
X       10.00000000      10.00000000      10.00000000       0.34202014       0.00000000       0.00000000       0.93969262       1.00000000       2.00000000       1.00000000       2.44346095       1.79492211       0.37447833       0.00000000      -0.00000000      -0.00000000      -0.84322439
X       11.93333333      10.00000000      10.00000000       1.00000000       0.00000000       0.00000000       0.00000000       1.00000000       2.00000000       1.00000000       0.00000000      -1.79492211      -0.37447833      -0.00000000      -0.00000000      -0.00000000       0.11304186
2
Lattice="20.0 0.0 0.0 0.0 20.0 0.0 0.0 0.0 20.0" Properties=species:S:1:pos:R:3:quaternions:R:4:c_diameter\[1\]:R:1:c_diameter\[2\]:R:1:c_diameter\[3\]:R:1:angles:R:1:forces:R:3:torques:R:3 separation_distance=1.9333333333333333 energy=-0.5514026281786575 pbc="F F F"
X       10.00000000      10.00000000      10.00000000       0.34202014       0.00000000       0.00000000       0.93969262       1.00000000       2.00000000       1.00000000       2.44346095       2.79617049       0.19364846       0.00000000      -0.00000000      -0.00000000      -1.26941257
X       11.93333333      10.00000000      10.00000000       0.98480775       0.00000000       0.00000000       0.17364818       1.00000000       2.00000000       1.00000000       0.34906585      -2.79617049      -0.19364846      -0.00000000      -0.00000000      -0.00000000       0.89758462
2
Lattice="20.0 0.0 0.0 0.0 20.0 0.0 0.0 0.0 20.0" Properties=species:S:1:pos:R:3:quaternions:R:4:c_diameter\[1\]:R:1:c_diameter\[2\]:R:1:c_diameter\[3\]:R:1:angles:R:1:forces:R:3:torques:R:3 separation_distance=1.9333333333333333 energy=-1.1229372078672828 pbc="F F F"
X       10.00000000      10.00000000      10.00000000       0.34202014       0.00000000       0.00000000       0.93969262       1.00000000       2.00000000       1.00000000       2.44346095       6.15292559       0.00000000       0.00000000      -0.00000000      -0.00000000      -2.61471795
X       11.93333333      10.00000000      10.00000000       0.93969262       0.00000000       0.00000000       0.34202014       1.00000000       2.00000000       1.00000000       0.69813170      -6.15292559      -0.00000000      -0.00000000      -0.00000000      -0.00000000       2.61471795
2
Lattice="20.0 0.0 0.0 0.0 20.0 0.0 0.0 0.0 20.0" Properties=species:S:1:pos:R:3:quaternions:R:4:c_diameter\[1\]:R:1:c_diameter\[2\]:R:1:c_diameter\[3\]:R:1:angles:R:1:forces:R:3:torques:R:3 separation_distance=1.9333333333333333 energy=-3.503349800878874 pbc="F F F"
X       10.00000000      10.00000000      10.00000000       0.34202014       0.00000000       0.00000000       0.93969262       1.00000000       2.00000000       1.00000000       2.44346095       5.97365321       1.71949226       0.00000000      -0.00000000      -0.00000000      -5.01531157
X       11.93333333      10.00000000      10.00000000       0.76604444       0.00000000       0.00000000       0.64278761       1.00000000       2.00000000       1.00000000       1.39626340      -5.97365321      -1.71949226      -0.00000000      -0.00000000      -0.00000000       1.94081802
2
Lattice="20.0 0.0 0.0 0.0 20.0 0.0 0.0 0.0 20.0" Properties=species:S:1:pos:R:3:quaternions:R:4:c_diameter\[1\]:R:1:c_diameter\[2\]:R:1:c_diameter\[3\]:R:1:angles:R:1:forces:R:3:torques:R:3 separation_distance=1.9333333333333333 energy=-0.7342573636711047 pbc="F F F"
X       10.00000000      10.00000000      10.00000000       0.34202014       0.00000000       0.00000000       0.93969262       1.00000000       2.00000000       1.00000000       2.44346095       3.33740928       1.35993742       0.00000000      -0.00000000      -0.00000000      -1.33270183
X       11.93333333      10.00000000      10.00000000       0.34202014       0.00000000       0.00000000       0.93969262       1.00000000       2.00000000       1.00000000       2.44346095      -3.33740928      -1.35993742      -0.00000000      -0.00000000      -0.00000000      -1.33270183
2
Lattice="20.0 0.0 0.0 0.0 20.0 0.0 0.0 0.0 20.0" Properties=species:S:1:pos:R:3:quaternions:R:4:c_diameter\[1\]:R:1:c_diameter\[2\]:R:1:c_diameter\[3\]:R:1:angles:R:1:forces:R:3:torques:R:3 separation_distance=1.9333333333333333 energy=-0.4490755339585865 pbc="F F F"
X       10.00000000      10.00000000      10.00000000       0.34202014       0.00000000       0.00000000       0.93969262       1.00000000       2.00000000       1.00000000       2.44346095       1.94583694       0.66626406       0.00000000      -0.00000000      -0.00000000      -0.86298990
X       11.93333333      10.00000000      10.00000000       0.17364818       0.00000000       0.00000000       0.98480775       1.00000000       2.00000000       1.00000000       2.79252680      -1.94583694      -0.66626406      -0.00000000      -0.00000000      -0.00000000      -0.43955663
2
Lattice="20.0 0.0 0.0 0.0 20.0 0.0 0.0 0.0 20.0" Properties=species:S:1:pos:R:3:quaternions:R:4:c_diameter\[1\]:R:1:c_diameter\[2\]:R:1:c_diameter\[3\]:R:1:angles:R:1:forces:R:3:torques:R:3 separation_distance=1.9333333333333333 energy=-0.39348150437879154 pbc="F F F"
X       10.00000000      10.00000000      10.00000000       0.34202014       0.00000000       0.00000000       0.93969262       1.00000000       2.00000000       1.00000000       2.44346095       1.79492211       0.37447833       0.00000000      -0.00000000      -0.00000000      -0.84322439
X       11.93333333      10.00000000      10.00000000       0.00000000       0.00000000       0.00000000       1.00000000       1.00000000       2.00000000       1.00000000       3.14159265      -1.79492211      -0.37447833      -0.00000000      -0.00000000      -0.00000000       0.11304186
2
Lattice="20.0 0.0 0.0 0.0 20.0 0.0 0.0 0.0 20.0" Properties=species:S:1:pos:R:3:quaternions:R:4:c_diameter\[1\]:R:1:c_diameter\[2\]:R:1:c_diameter\[3\]:R:1:angles:R:1:forces:R:3:torques:R:3 separation_distance=1.9333333333333333 energy=-0.2118890250846994 pbc="F F F"
X       10.00000000      10.00000000      10.00000000       0.17364818       0.00000000       0.00000000       0.98480775       1.00000000       2.00000000       1.00000000       2.79252680       0.83294124       0.13777455       0.00000000      -0.00000000      -0.00000000      -0.28649380
X       11.93333333      10.00000000      10.00000000       1.00000000       0.00000000       0.00000000       0.00000000       1.00000000       2.00000000       1.00000000       0.00000000      -0.83294124      -0.13777455      -0.00000000      -0.00000000      -0.00000000       0.01762341
2
Lattice="20.0 0.0 0.0 0.0 20.0 0.0 0.0 0.0 20.0" Properties=species:S:1:pos:R:3:quaternions:R:4:c_diameter\[1\]:R:1:c_diameter\[2\]:R:1:c_diameter\[3\]:R:1:angles:R:1:forces:R:3:torques:R:3 separation_distance=1.9333333333333333 energy=-0.2802513562824183 pbc="F F F"
X       10.00000000      10.00000000      10.00000000       0.17364818       0.00000000       0.00000000       0.98480775       1.00000000       2.00000000       1.00000000       2.79252680       1.22483060       0.00000000       0.00000000      -0.00000000      -0.00000000      -0.41776960
X       11.93333333      10.00000000      10.00000000       0.98480775       0.00000000       0.00000000       0.17364818       1.00000000       2.00000000       1.00000000       0.34906585      -1.22483060      -0.00000000      -0.00000000      -0.00000000      -0.00000000       0.41776960
2
Lattice="20.0 0.0 0.0 0.0 20.0 0.0 0.0 0.0 20.0" Properties=species:S:1:pos:R:3:quaternions:R:4:c_diameter\[1\]:R:1:c_diameter\[2\]:R:1:c_diameter\[3\]:R:1:angles:R:1:forces:R:3:torques:R:3 separation_distance=1.9333333333333333 energy=-0.5514026281786581 pbc="F F F"
X       10.00000000      10.00000000      10.00000000       0.17364818       0.00000000       0.00000000       0.98480775       1.00000000       2.00000000       1.00000000       2.79252680       2.79617049      -0.19364846       0.00000000      -0.00000000      -0.00000000      -0.89758462
X       11.93333333      10.00000000      10.00000000       0.93969262       0.00000000       0.00000000       0.34202014       1.00000000       2.00000000       1.00000000       0.69813170      -2.79617049       0.19364846      -0.00000000      -0.00000000      -0.00000000       1.26941257
2
Lattice="20.0 0.0 0.0 0.0 20.0 0.0 0.0 0.0 20.0" Properties=species:S:1:pos:R:3:quaternions:R:4:c_diameter\[1\]:R:1:c_diameter\[2\]:R:1:c_diameter\[3\]:R:1:angles:R:1:forces:R:3:torques:R:3 separation_distance=1.9333333333333333 energy=-1.2281092316234856 pbc="F F F"
X       10.00000000      10.00000000      10.00000000       0.17364818       0.00000000       0.00000000       0.98480775       1.00000000       2.00000000       1.00000000       2.79252680       6.72199074      -0.31425702       0.00000000      -0.00000000      -0.00000000      -1.97369671
X       11.93333333      10.00000000      10.00000000       0.86602540       0.00000000       0.00000000       0.50000000       1.00000000       2.00000000       1.00000000       1.04719755      -6.72199074       0.31425702      -0.00000000      -0.00000000      -0.00000000       2.51783915
2
Lattice="20.0 0.0 0.0 0.0 20.0 0.0 0.0 0.0 20.0" Properties=species:S:1:pos:R:3:quaternions:R:4:c_diameter\[1\]:R:1:c_diameter\[2\]:R:1:c_diameter\[3\]:R:1:angles:R:1:forces:R:3:torques:R:3 separation_distance=1.9333333333333333 energy=-0.9399251596629044 pbc="F F F"
X       10.00000000      10.00000000      10.00000000       0.17364818       0.00000000       0.00000000       0.98480775       1.00000000       2.00000000       1.00000000       2.79252680       4.83355829       1.49959904       0.00000000      -0.00000000      -0.00000000      -0.82062134
X       11.93333333      10.00000000      10.00000000       0.50000000       0.00000000       0.00000000       0.86602540       1.00000000       2.00000000       1.00000000       2.09439510      -4.83355829      -1.49959904      -0.00000000      -0.00000000      -0.00000000      -2.08446881
2
Lattice="20.0 0.0 0.0 0.0 20.0 0.0 0.0 0.0 20.0" Properties=species:S:1:pos:R:3:quaternions:R:4:c_diameter\[1\]:R:1:c_diameter\[2\]:R:1:c_diameter\[3\]:R:1:angles:R:1:forces:R:3:torques:R:3 separation_distance=1.9333333333333333 energy=-0.4490755339585865 pbc="F F F"
X       10.00000000      10.00000000      10.00000000       0.17364818       0.00000000       0.00000000       0.98480775       1.00000000       2.00000000       1.00000000       2.79252680       1.94583694       0.66626406       0.00000000      -0.00000000      -0.00000000      -0.43955663
X       11.93333333      10.00000000      10.00000000       0.34202014       0.00000000       0.00000000       0.93969262       1.00000000       2.00000000       1.00000000       2.44346095      -1.94583694      -0.66626406      -0.00000000      -0.00000000      -0.00000000      -0.86298990
2
Lattice="20.0 0.0 0.0 0.0 20.0 0.0 0.0 0.0 20.0" Properties=species:S:1:pos:R:3:quaternions:R:4:c_diameter\[1\]:R:1:c_diameter\[2\]:R:1:c_diameter\[3\]:R:1:angles:R:1:forces:R:3:torques:R:3 separation_distance=1.9333333333333333 energy=-0.2603222527938925 pbc="F F F"
X       10.00000000      10.00000000      10.00000000       0.17364818       0.00000000       0.00000000       0.98480775       1.00000000       2.00000000       1.00000000       2.79252680       1.01412985       0.31396684       0.00000000      -0.00000000      -0.00000000      -0.30625036
X       11.93333333      10.00000000      10.00000000       0.17364818       0.00000000       0.00000000       0.98480775       1.00000000       2.00000000       1.00000000       2.79252680      -1.01412985      -0.31396684      -0.00000000      -0.00000000      -0.00000000      -0.30625036
2
Lattice="20.0 0.0 0.0 0.0 20.0 0.0 0.0 0.0 20.0" Properties=species:S:1:pos:R:3:quaternions:R:4:c_diameter\[1\]:R:1:c_diameter\[2\]:R:1:c_diameter\[3\]:R:1:angles:R:1:forces:R:3:torques:R:3 separation_distance=1.9333333333333333 energy=-0.2118890250846997 pbc="F F F"
X       10.00000000      10.00000000      10.00000000       0.17364818       0.00000000       0.00000000       0.98480775       1.00000000       2.00000000       1.00000000       2.79252680       0.83294124       0.13777455       0.00000000      -0.00000000      -0.00000000      -0.28649380
X       11.93333333      10.00000000      10.00000000       0.00000000       0.00000000       0.00000000       1.00000000       1.00000000       2.00000000       1.00000000       3.14159265      -0.83294124      -0.13777455      -0.00000000      -0.00000000      -0.00000000       0.01762341
2
Lattice="20.0 0.0 0.0 0.0 20.0 0.0 0.0 0.0 20.0" Properties=species:S:1:pos:R:3:quaternions:R:4:c_diameter\[1\]:R:1:c_diameter\[2\]:R:1:c_diameter\[3\]:R:1:angles:R:1:forces:R:3:torques:R:3 separation_distance=1.9333333333333333 energy=-0.1655426352374722 pbc="F F F"
X       10.00000000      10.00000000      10.00000000       0.00000000       0.00000000       0.00000000       1.00000000       1.00000000       2.00000000       1.00000000       3.14159265       0.61421797       0.00000000       0.00000000      -0.00000000      -0.00000000      -0.00000000
X       11.93333333      10.00000000      10.00000000       1.00000000       0.00000000       0.00000000       0.00000000       1.00000000       2.00000000       1.00000000       0.00000000      -0.61421797      -0.00000000      -0.00000000      -0.00000000      -0.00000000      -0.00000000
2
Lattice="20.0 0.0 0.0 0.0 20.0 0.0 0.0 0.0 20.0" Properties=species:S:1:pos:R:3:quaternions:R:4:c_diameter\[1\]:R:1:c_diameter\[2\]:R:1:c_diameter\[3\]:R:1:angles:R:1:forces:R:3:torques:R:3 separation_distance=1.9333333333333333 energy=-0.21188902508469945 pbc="F F F"
X       10.00000000      10.00000000      10.00000000       0.00000000       0.00000000       0.00000000       1.00000000       1.00000000       2.00000000       1.00000000       3.14159265       0.83294124      -0.13777455       0.00000000      -0.00000000      -0.00000000      -0.01762341
X       11.93333333      10.00000000      10.00000000       0.98480775       0.00000000       0.00000000       0.17364818       1.00000000       2.00000000       1.00000000       0.34906585      -0.83294124       0.13777455      -0.00000000      -0.00000000      -0.00000000       0.28649380
2
Lattice="20.0 0.0 0.0 0.0 20.0 0.0 0.0 0.0 20.0" Properties=species:S:1:pos:R:3:quaternions:R:4:c_diameter\[1\]:R:1:c_diameter\[2\]:R:1:c_diameter\[3\]:R:1:angles:R:1:forces:R:3:torques:R:3 separation_distance=1.9333333333333333 energy=-0.39348150437879137 pbc="F F F"
X       10.00000000      10.00000000      10.00000000       0.00000000       0.00000000       0.00000000       1.00000000       1.00000000       2.00000000       1.00000000       3.14159265       1.79492211      -0.37447833       0.00000000      -0.00000000      -0.00000000      -0.11304186
X       11.93333333      10.00000000      10.00000000       0.93969262       0.00000000       0.00000000       0.34202014       1.00000000       2.00000000       1.00000000       0.69813170      -1.79492211       0.37447833      -0.00000000      -0.00000000      -0.00000000       0.84322439
2
Lattice="20.0 0.0 0.0 0.0 20.0 0.0 0.0 0.0 20.0" Properties=species:S:1:pos:R:3:quaternions:R:4:c_diameter\[1\]:R:1:c_diameter\[2\]:R:1:c_diameter\[3\]:R:1:angles:R:1:forces:R:3:torques:R:3 separation_distance=1.9333333333333333 energy=-0.8608502086187273 pbc="F F F"
X       10.00000000      10.00000000      10.00000000       0.00000000       0.00000000       0.00000000       1.00000000       1.00000000       2.00000000       1.00000000       3.14159265       4.58402169      -0.80330305       0.00000000      -0.00000000      -0.00000000      -0.34225663
X       11.93333333      10.00000000      10.00000000       0.86602540       0.00000000       0.00000000       0.50000000       1.00000000       2.00000000       1.00000000       1.04719755      -4.58402169       0.80330305      -0.00000000      -0.00000000      -0.00000000       1.87211812
2
Lattice="20.0 0.0 0.0 0.0 20.0 0.0 0.0 0.0 20.0" Properties=species:S:1:pos:R:3:quaternions:R:4:c_diameter\[1\]:R:1:c_diameter\[2\]:R:1:c_diameter\[3\]:R:1:angles:R:1:forces:R:3:torques:R:3 separation_distance=1.9333333333333333 energy=-0.8608502086187275 pbc="F F F"
X       10.00000000      10.00000000      10.00000000       0.00000000       0.00000000       0.00000000       1.00000000       1.00000000       2.00000000       1.00000000       3.14159265       4.58402169       0.80330305       0.00000000      -0.00000000      -0.00000000       0.34225663
X       11.93333333      10.00000000      10.00000000       0.50000000       0.00000000       0.00000000       0.86602540       1.00000000       2.00000000       1.00000000       2.09439510      -4.58402169      -0.80330305      -0.00000000      -0.00000000      -0.00000000      -1.87211812
2
Lattice="20.0 0.0 0.0 0.0 20.0 0.0 0.0 0.0 20.0" Properties=species:S:1:pos:R:3:quaternions:R:4:c_diameter\[1\]:R:1:c_diameter\[2\]:R:1:c_diameter\[3\]:R:1:angles:R:1:forces:R:3:torques:R:3 separation_distance=1.9333333333333333 energy=-0.39348150437879154 pbc="F F F"
X       10.00000000      10.00000000      10.00000000       0.00000000       0.00000000       0.00000000       1.00000000       1.00000000       2.00000000       1.00000000       3.14159265       1.79492211       0.37447833       0.00000000      -0.00000000      -0.00000000       0.11304186
X       11.93333333      10.00000000      10.00000000       0.34202014       0.00000000       0.00000000       0.93969262       1.00000000       2.00000000       1.00000000       2.44346095      -1.79492211      -0.37447833      -0.00000000      -0.00000000      -0.00000000      -0.84322439
2
Lattice="20.0 0.0 0.0 0.0 20.0 0.0 0.0 0.0 20.0" Properties=species:S:1:pos:R:3:quaternions:R:4:c_diameter\[1\]:R:1:c_diameter\[2\]:R:1:c_diameter\[3\]:R:1:angles:R:1:forces:R:3:torques:R:3 separation_distance=1.9333333333333333 energy=-0.2118890250846997 pbc="F F F"
X       10.00000000      10.00000000      10.00000000       0.00000000       0.00000000       0.00000000       1.00000000       1.00000000       2.00000000       1.00000000       3.14159265       0.83294124       0.13777455       0.00000000      -0.00000000      -0.00000000       0.01762341
X       11.93333333      10.00000000      10.00000000       0.17364818       0.00000000       0.00000000       0.98480775       1.00000000       2.00000000       1.00000000       2.79252680      -0.83294124      -0.13777455      -0.00000000      -0.00000000      -0.00000000      -0.28649380
2
Lattice="20.0 0.0 0.0 0.0 20.0 0.0 0.0 0.0 20.0" Properties=species:S:1:pos:R:3:quaternions:R:4:c_diameter\[1\]:R:1:c_diameter\[2\]:R:1:c_diameter\[3\]:R:1:angles:R:1:forces:R:3:torques:R:3 separation_distance=1.9333333333333333 energy=-0.1655426352374722 pbc="F F F"
X       10.00000000      10.00000000      10.00000000       0.00000000       0.00000000       0.00000000       1.00000000       1.00000000       2.00000000       1.00000000       3.14159265       0.61421797       0.00000000       0.00000000      -0.00000000      -0.00000000      -0.00000000
X       11.93333333      10.00000000      10.00000000       0.00000000       0.00000000       0.00000000       1.00000000       1.00000000       2.00000000       1.00000000       3.14159265      -0.61421797      -0.00000000      -0.00000000      -0.00000000      -0.00000000      -0.00000000
2
Lattice="20.0 0.0 0.0 0.0 20.0 0.0 0.0 0.0 20.0" Properties=species:S:1:pos:R:3:quaternions:R:4:c_diameter\[1\]:R:1:c_diameter\[2\]:R:1:c_diameter\[3\]:R:1:angles:R:1:forces:R:3:torques:R:3 separation_distance=2.088888888888889 energy=-0.09766503688642762 pbc="F F F"
X       10.00000000      10.00000000      10.00000000       1.00000000       0.00000000       0.00000000       0.00000000       1.00000000       2.00000000       1.00000000       0.00000000       0.30310870       0.00000000       0.00000000      -0.00000000      -0.00000000      -0.00000000
X       12.08888889      10.00000000      10.00000000       1.00000000       0.00000000       0.00000000       0.00000000       1.00000000       2.00000000       1.00000000       0.00000000      -0.30310870      -0.00000000      -0.00000000      -0.00000000      -0.00000000      -0.00000000
2
Lattice="20.0 0.0 0.0 0.0 20.0 0.0 0.0 0.0 20.0" Properties=species:S:1:pos:R:3:quaternions:R:4:c_diameter\[1\]:R:1:c_diameter\[2\]:R:1:c_diameter\[3\]:R:1:angles:R:1:forces:R:3:torques:R:3 separation_distance=2.088888888888889 energy=-0.12128397512484936 pbc="F F F"
X       10.00000000      10.00000000      10.00000000       1.00000000       0.00000000       0.00000000       0.00000000       1.00000000       2.00000000       1.00000000       0.00000000       0.39699832      -0.06871807       0.00000000      -0.00000000      -0.00000000       0.00211944
X       12.08888889      10.00000000      10.00000000       0.98480775       0.00000000       0.00000000       0.17364818       1.00000000       2.00000000       1.00000000       0.34906585      -0.39699832       0.06871807      -0.00000000      -0.00000000      -0.00000000       0.14225824
2
Lattice="20.0 0.0 0.0 0.0 20.0 0.0 0.0 0.0 20.0" Properties=species:S:1:pos:R:3:quaternions:R:4:c_diameter\[1\]:R:1:c_diameter\[2\]:R:1:c_diameter\[3\]:R:1:angles:R:1:forces:R:3:torques:R:3 separation_distance=2.088888888888889 energy=-0.20626501143274006 pbc="F F F"
X       10.00000000      10.00000000      10.00000000       1.00000000       0.00000000       0.00000000       0.00000000       1.00000000       2.00000000       1.00000000       0.00000000       0.77786069      -0.16598866       0.00000000      -0.00000000      -0.00000000      -0.02492829
X       12.08888889      10.00000000      10.00000000       0.93969262       0.00000000       0.00000000       0.34202014       1.00000000       2.00000000       1.00000000       0.69813170      -0.77786069       0.16598866      -0.00000000      -0.00000000      -0.00000000       0.37353088
2
Lattice="20.0 0.0 0.0 0.0 20.0 0.0 0.0 0.0 20.0" Properties=species:S:1:pos:R:3:quaternions:R:4:c_diameter\[1\]:R:1:c_diameter\[2\]:R:1:c_diameter\[3\]:R:1:angles:R:1:forces:R:3:torques:R:3 separation_distance=2.088888888888889 energy=-0.3999925317517508 pbc="F F F"
X       10.00000000      10.00000000      10.00000000       1.00000000       0.00000000       0.00000000       0.00000000       1.00000000       2.00000000       1.00000000       0.00000000       1.79858149      -0.31024583       0.00000000      -0.00000000      -0.00000000      -0.10249997
X       12.08888889      10.00000000      10.00000000       0.86602540       0.00000000       0.00000000       0.50000000       1.00000000       2.00000000       1.00000000       1.04719755      -1.79858149       0.31024583      -0.00000000      -0.00000000      -0.00000000       0.74262113
2
Lattice="20.0 0.0 0.0 0.0 20.0 0.0 0.0 0.0 20.0" Properties=species:S:1:pos:R:3:quaternions:R:4:c_diameter\[1\]:R:1:c_diameter\[2\]:R:1:c_diameter\[3\]:R:1:angles:R:1:forces:R:3:torques:R:3 separation_distance=2.088888888888889 energy=-0.670564426572223 pbc="F F F"
X       10.00000000      10.00000000      10.00000000       1.00000000       0.00000000       0.00000000       0.00000000       1.00000000       2.00000000       1.00000000       0.00000000       3.40034369      -0.23684811       0.00000000      -0.00000000      -0.00000000      -0.09556935
X       12.08888889      10.00000000      10.00000000       0.76604444       0.00000000       0.00000000       0.64278761       1.00000000       2.00000000       1.00000000       1.39626340      -3.40034369       0.23684811      -0.00000000      -0.00000000      -0.00000000       0.56778128
2
Lattice="20.0 0.0 0.0 0.0 20.0 0.0 0.0 0.0 20.0" Properties=species:S:1:pos:R:3:quaternions:R:4:c_diameter\[1\]:R:1:c_diameter\[2\]:R:1:c_diameter\[3\]:R:1:angles:R:1:forces:R:3:torques:R:3 separation_distance=2.088888888888889 energy=-0.670564426572223 pbc="F F F"
X       10.00000000      10.00000000      10.00000000       1.00000000       0.00000000       0.00000000       0.00000000       1.00000000       2.00000000       1.00000000       0.00000000       3.40034369       0.23684811       0.00000000      -0.00000000      -0.00000000       0.09556935
X       12.08888889      10.00000000      10.00000000       0.64278761       0.00000000       0.00000000       0.76604444       1.00000000       2.00000000       1.00000000       1.74532925      -3.40034369      -0.23684811      -0.00000000      -0.00000000      -0.00000000      -0.56778128
2
Lattice="20.0 0.0 0.0 0.0 20.0 0.0 0.0 0.0 20.0" Properties=species:S:1:pos:R:3:quaternions:R:4:c_diameter\[1\]:R:1:c_diameter\[2\]:R:1:c_diameter\[3\]:R:1:angles:R:1:forces:R:3:torques:R:3 separation_distance=2.088888888888889 energy=-0.3999925317517509 pbc="F F F"
X       10.00000000      10.00000000      10.00000000       1.00000000       0.00000000       0.00000000       0.00000000       1.00000000       2.00000000       1.00000000       0.00000000       1.79858149       0.31024583       0.00000000      -0.00000000      -0.00000000       0.10249997
X       12.08888889      10.00000000      10.00000000       0.50000000       0.00000000       0.00000000       0.86602540       1.00000000       2.00000000       1.00000000       2.09439510      -1.79858149      -0.31024583      -0.00000000      -0.00000000      -0.00000000      -0.74262113
2
Lattice="20.0 0.0 0.0 0.0 20.0 0.0 0.0 0.0 20.0" Properties=species:S:1:pos:R:3:quaternions:R:4:c_diameter\[1\]:R:1:c_diameter\[2\]:R:1:c_diameter\[3\]:R:1:angles:R:1:forces:R:3:torques:R:3 separation_distance=2.088888888888889 energy=-0.2062650114327403 pbc="F F F"
X       10.00000000      10.00000000      10.00000000       1.00000000       0.00000000       0.00000000       0.00000000       1.00000000       2.00000000       1.00000000       0.00000000       0.77786069       0.16598866       0.00000000      -0.00000000      -0.00000000       0.02492829
X       12.08888889      10.00000000      10.00000000       0.34202014       0.00000000       0.00000000       0.93969262       1.00000000       2.00000000       1.00000000       2.44346095      -0.77786069      -0.16598866      -0.00000000      -0.00000000      -0.00000000      -0.37353088
2
Lattice="20.0 0.0 0.0 0.0 20.0 0.0 0.0 0.0 20.0" Properties=species:S:1:pos:R:3:quaternions:R:4:c_diameter\[1\]:R:1:c_diameter\[2\]:R:1:c_diameter\[3\]:R:1:angles:R:1:forces:R:3:torques:R:3 separation_distance=2.088888888888889 energy=-0.12128397512484931 pbc="F F F"
X       10.00000000      10.00000000      10.00000000       1.00000000       0.00000000       0.00000000       0.00000000       1.00000000       2.00000000       1.00000000       0.00000000       0.39699832       0.06871807       0.00000000      -0.00000000      -0.00000000      -0.00211944
X       12.08888889      10.00000000      10.00000000       0.17364818       0.00000000       0.00000000       0.98480775       1.00000000       2.00000000       1.00000000       2.79252680      -0.39699832      -0.06871807      -0.00000000      -0.00000000      -0.00000000      -0.14225824
2
Lattice="20.0 0.0 0.0 0.0 20.0 0.0 0.0 0.0 20.0" Properties=species:S:1:pos:R:3:quaternions:R:4:c_diameter\[1\]:R:1:c_diameter\[2\]:R:1:c_diameter\[3\]:R:1:angles:R:1:forces:R:3:torques:R:3 separation_distance=2.088888888888889 energy=-0.09766503688642762 pbc="F F F"
X       10.00000000      10.00000000      10.00000000       1.00000000       0.00000000       0.00000000       0.00000000       1.00000000       2.00000000       1.00000000       0.00000000       0.30310870       0.00000000       0.00000000      -0.00000000      -0.00000000      -0.00000000
X       12.08888889      10.00000000      10.00000000       0.00000000       0.00000000       0.00000000       1.00000000       1.00000000       2.00000000       1.00000000       3.14159265      -0.30310870      -0.00000000      -0.00000000      -0.00000000      -0.00000000      -0.00000000
2
Lattice="20.0 0.0 0.0 0.0 20.0 0.0 0.0 0.0 20.0" Properties=species:S:1:pos:R:3:quaternions:R:4:c_diameter\[1\]:R:1:c_diameter\[2\]:R:1:c_diameter\[3\]:R:1:angles:R:1:forces:R:3:torques:R:3 separation_distance=2.088888888888889 energy=-0.12128397512484936 pbc="F F F"
X       10.00000000      10.00000000      10.00000000       0.98480775       0.00000000       0.00000000       0.17364818       1.00000000       2.00000000       1.00000000       0.34906585       0.39699832      -0.06871807       0.00000000      -0.00000000      -0.00000000       0.14225824
X       12.08888889      10.00000000      10.00000000       1.00000000       0.00000000       0.00000000       0.00000000       1.00000000       2.00000000       1.00000000       0.00000000      -0.39699832       0.06871807      -0.00000000      -0.00000000      -0.00000000       0.00211944
2
Lattice="20.0 0.0 0.0 0.0 20.0 0.0 0.0 0.0 20.0" Properties=species:S:1:pos:R:3:quaternions:R:4:c_diameter\[1\]:R:1:c_diameter\[2\]:R:1:c_diameter\[3\]:R:1:angles:R:1:forces:R:3:torques:R:3 separation_distance=2.088888888888889 energy=-0.14973203383757366 pbc="F F F"
X       10.00000000      10.00000000      10.00000000       0.98480775       0.00000000       0.00000000       0.17364818       1.00000000       2.00000000       1.00000000       0.34906585       0.48603371      -0.15624594       0.00000000      -0.00000000      -0.00000000       0.16404477
X       12.08888889      10.00000000      10.00000000       0.98480775       0.00000000       0.00000000       0.17364818       1.00000000       2.00000000       1.00000000       0.34906585      -0.48603371       0.15624594      -0.00000000      -0.00000000      -0.00000000       0.16404477
2
Lattice="20.0 0.0 0.0 0.0 20.0 0.0 0.0 0.0 20.0" Properties=species:S:1:pos:R:3:quaternions:R:4:c_diameter\[1\]:R:1:c_diameter\[2\]:R:1:c_diameter\[3\]:R:1:angles:R:1:forces:R:3:torques:R:3 separation_distance=2.088888888888889 energy=-0.2431327728397135 pbc="F F F"
X       10.00000000      10.00000000      10.00000000       0.98480775       0.00000000       0.00000000       0.17364818       1.00000000       2.00000000       1.00000000       0.34906585       0.87216595      -0.30383811       0.00000000      -0.00000000      -0.00000000       0.24038468
X       12.08888889      10.00000000      10.00000000       0.93969262       0.00000000       0.00000000       0.34202014       1.00000000       2.00000000       1.00000000       0.69813170      -0.87216595       0.30383811      -0.00000000      -0.00000000      -0.00000000       0.39891552
2
Lattice="20.0 0.0 0.0 0.0 20.0 0.0 0.0 0.0 20.0" Properties=species:S:1:pos:R:3:quaternions:R:4:c_diameter\[1\]:R:1:c_diameter\[2\]:R:1:c_diameter\[3\]:R:1:angles:R:1:forces:R:3:torques:R:3 separation_distance=2.088888888888889 energy=-0.4513069223323319 pbc="F F F"
X       10.00000000      10.00000000      10.00000000       0.98480775       0.00000000       0.00000000       0.17364818       1.00000000       2.00000000       1.00000000       0.34906585       1.93547657      -0.59215146       0.00000000      -0.00000000      -0.00000000       0.41023424
X       12.08888889      10.00000000      10.00000000       0.86602540       0.00000000       0.00000000       0.50000000       1.00000000       2.00000000       1.00000000       1.04719755      -1.93547657       0.59215146      -0.00000000      -0.00000000      -0.00000000       0.82857384
2
Lattice="20.0 0.0 0.0 0.0 20.0 0.0 0.0 0.0 20.0" Properties=species:S:1:pos:R:3:quaternions:R:4:c_diameter\[1\]:R:1:c_diameter\[2\]:R:1:c_diameter\[3\]:R:1:angles:R:1:forces:R:3:torques:R:3 separation_distance=2.088888888888889 energy=-0.7891896078035904 pbc="F F F"
X       10.00000000      10.00000000      10.00000000       0.98480775       0.00000000       0.00000000       0.17364818       1.00000000       2.00000000       1.00000000       0.34906585       3.97502801      -0.82441955       0.00000000      -0.00000000      -0.00000000       0.83873810
X       12.08888889      10.00000000      10.00000000       0.76604444       0.00000000       0.00000000       0.64278761       1.00000000       2.00000000       1.00000000       1.39626340      -3.97502801       0.82441955      -0.00000000      -0.00000000      -0.00000000       0.86574769
2
Lattice="20.0 0.0 0.0 0.0 20.0 0.0 0.0 0.0 20.0" Properties=species:S:1:pos:R:3:quaternions:R:4:c_diameter\[1\]:R:1:c_diameter\[2\]:R:1:c_diameter\[3\]:R:1:angles:R:1:forces:R:3:torques:R:3 separation_distance=2.088888888888889 energy=-0.8710279249456732 pbc="F F F"
X       10.00000000      10.00000000      10.00000000       0.98480775       0.00000000       0.00000000       0.17364818       1.00000000       2.00000000       1.00000000       0.34906585       4.58963260      -0.29113830       0.00000000      -0.00000000      -0.00000000       1.18113782
X       12.08888889      10.00000000      10.00000000       0.64278761       0.00000000       0.00000000       0.76604444       1.00000000       2.00000000       1.00000000       1.74532925      -4.58963260       0.29113830      -0.00000000      -0.00000000      -0.00000000      -0.53318922
2
Lattice="20.0 0.0 0.0 0.0 20.0 0.0 0.0 0.0 20.0" Properties=species:S:1:pos:R:3:quaternions:R:4:c_diameter\[1\]:R:1:c_diameter\[2\]:R:1:c_diameter\[3\]:R:1:angles:R:1:forces:R:3:torques:R:3 separation_distance=2.088888888888889 energy=-0.5403564723277622 pbc="F F F"
X       10.00000000      10.00000000      10.00000000       0.98480775       0.00000000       0.00000000       0.17364818       1.00000000       2.00000000       1.00000000       0.34906585       2.64940144       0.11809216       0.00000000      -0.00000000      -0.00000000       0.78964037
X       12.08888889      10.00000000      10.00000000       0.50000000       0.00000000       0.00000000       0.86602540       1.00000000       2.00000000       1.00000000       2.09439510      -2.64940144      -0.11809216      -0.00000000      -0.00000000      -0.00000000      -1.01201035
2
Lattice="20.0 0.0 0.0 0.0 20.0 0.0 0.0 0.0 20.0" Properties=species:S:1:pos:R:3:quaternions:R:4:c_diameter\[1\]:R:1:c_diameter\[2\]:R:1:c_diameter\[3\]:R:1:angles:R:1:forces:R:3:torques:R:3 separation_distance=2.088888888888889 energy=-0.26786533212058733 pbc="F F F"
X       10.00000000      10.00000000      10.00000000       0.98480775       0.00000000       0.00000000       0.17364818       1.00000000       2.00000000       1.00000000       0.34906585       1.12968901       0.07870878       0.00000000      -0.00000000      -0.00000000       0.36408680
X       12.08888889      10.00000000      10.00000000       0.34202014       0.00000000       0.00000000       0.93969262       1.00000000       2.00000000       1.00000000       2.44346095      -1.12968901      -0.07870878      -0.00000000      -0.00000000      -0.00000000      -0.52735083
2
Lattice="20.0 0.0 0.0 0.0 20.0 0.0 0.0 0.0 20.0" Properties=species:S:1:pos:R:3:quaternions:R:4:c_diameter\[1\]:R:1:c_diameter\[2\]:R:1:c_diameter\[3\]:R:1:angles:R:1:forces:R:3:torques:R:3 separation_distance=2.088888888888889 energy=-0.15093534846454582 pbc="F F F"
X       10.00000000      10.00000000      10.00000000       0.98480775       0.00000000       0.00000000       0.17364818       1.00000000       2.00000000       1.00000000       0.34906585       0.54593314       0.00000000       0.00000000      -0.00000000      -0.00000000       0.18687827
X       12.08888889      10.00000000      10.00000000       0.17364818       0.00000000       0.00000000       0.98480775       1.00000000       2.00000000       1.00000000       2.79252680      -0.54593314      -0.00000000      -0.00000000      -0.00000000      -0.00000000      -0.18687827
2
Lattice="20.0 0.0 0.0 0.0 20.0 0.0 0.0 0.0 20.0" Properties=species:S:1:pos:R:3:quaternions:R:4:c_diameter\[1\]:R:1:c_diameter\[2\]:R:1:c_diameter\[3\]:R:1:angles:R:1:forces:R:3:torques:R:3 separation_distance=2.088888888888889 energy=-0.12128397512484951 pbc="F F F"
X       10.00000000      10.00000000      10.00000000       0.98480775       0.00000000       0.00000000       0.17364818       1.00000000       2.00000000       1.00000000       0.34906585       0.39699832      -0.06871807       0.00000000      -0.00000000      -0.00000000       0.14225824
X       12.08888889      10.00000000      10.00000000       0.00000000       0.00000000       0.00000000       1.00000000       1.00000000       2.00000000       1.00000000       3.14159265      -0.39699832       0.06871807      -0.00000000      -0.00000000      -0.00000000       0.00211944
2
Lattice="20.0 0.0 0.0 0.0 20.0 0.0 0.0 0.0 20.0" Properties=species:S:1:pos:R:3:quaternions:R:4:c_diameter\[1\]:R:1:c_diameter\[2\]:R:1:c_diameter\[3\]:R:1:angles:R:1:forces:R:3:torques:R:3 separation_distance=2.088888888888889 energy=-0.20626501143274006 pbc="F F F"
X       10.00000000      10.00000000      10.00000000       0.93969262       0.00000000       0.00000000       0.34202014       1.00000000       2.00000000       1.00000000       0.69813170       0.77786069      -0.16598866       0.00000000      -0.00000000      -0.00000000       0.37353088
X       12.08888889      10.00000000      10.00000000       1.00000000       0.00000000       0.00000000       0.00000000       1.00000000       2.00000000       1.00000000       0.00000000      -0.77786069       0.16598866      -0.00000000      -0.00000000      -0.00000000      -0.02492829
2
Lattice="20.0 0.0 0.0 0.0 20.0 0.0 0.0 0.0 20.0" Properties=species:S:1:pos:R:3:quaternions:R:4:c_diameter\[1\]:R:1:c_diameter\[2\]:R:1:c_diameter\[3\]:R:1:angles:R:1:forces:R:3:torques:R:3 separation_distance=2.088888888888889 energy=-0.2431327728397135 pbc="F F F"
X       10.00000000      10.00000000      10.00000000       0.93969262       0.00000000       0.00000000       0.34202014       1.00000000       2.00000000       1.00000000       0.69813170       0.87216595      -0.30383811       0.00000000      -0.00000000      -0.00000000       0.39891552
X       12.08888889      10.00000000      10.00000000       0.98480775       0.00000000       0.00000000       0.17364818       1.00000000       2.00000000       1.00000000       0.34906585      -0.87216595       0.30383811      -0.00000000      -0.00000000      -0.00000000       0.24038468
2
Lattice="20.0 0.0 0.0 0.0 20.0 0.0 0.0 0.0 20.0" Properties=species:S:1:pos:R:3:quaternions:R:4:c_diameter\[1\]:R:1:c_diameter\[2\]:R:1:c_diameter\[3\]:R:1:angles:R:1:forces:R:3:torques:R:3 separation_distance=2.088888888888889 energy=-0.3858004467170283 pbc="F F F"
X       10.00000000      10.00000000      10.00000000       0.93969262       0.00000000       0.00000000       0.34202014       1.00000000       2.00000000       1.00000000       0.69813170       1.44976483      -0.58978301       0.00000000      -0.00000000      -0.00000000       0.62158505
X       12.08888889      10.00000000      10.00000000       0.93969262       0.00000000       0.00000000       0.34202014       1.00000000       2.00000000       1.00000000       0.69813170      -1.44976483       0.58978301      -0.00000000      -0.00000000      -0.00000000       0.62158505
2
Lattice="20.0 0.0 0.0 0.0 20.0 0.0 0.0 0.0 20.0" Properties=species:S:1:pos:R:3:quaternions:R:4:c_diameter\[1\]:R:1:c_diameter\[2\]:R:1:c_diameter\[3\]:R:1:angles:R:1:forces:R:3:torques:R:3 separation_distance=2.088888888888889 energy=-0.7205854823840991 pbc="F F F"
X       10.00000000      10.00000000      10.00000000       0.93969262       0.00000000       0.00000000       0.34202014       1.00000000       2.00000000       1.00000000       0.69813170       3.15397910      -1.26354064       0.00000000      -0.00000000      -0.00000000       1.26052471
X       12.08888889      10.00000000      10.00000000       0.86602540       0.00000000       0.00000000       0.50000000       1.00000000       2.00000000       1.00000000       1.04719755      -3.15397910       1.26354064      -0.00000000      -0.00000000      -0.00000000       1.39861629
2
Lattice="20.0 0.0 0.0 0.0 20.0 0.0 0.0 0.0 20.0" Properties=species:S:1:pos:R:3:quaternions:R:4:c_diameter\[1\]:R:1:c_diameter\[2\]:R:1:c_diameter\[3\]:R:1:angles:R:1:forces:R:3:torques:R:3 separation_distance=2.088888888888889 energy=-1.357982945228154 pbc="F F F"
X       10.00000000      10.00000000      10.00000000       0.93969262       0.00000000       0.00000000       0.34202014       1.00000000       2.00000000       1.00000000       0.69813170       7.08630061      -2.25466948       0.00000000      -0.00000000      -0.00000000       2.79234929
X       12.08888889      10.00000000      10.00000000       0.76604444       0.00000000       0.00000000       0.64278761       1.00000000       2.00000000       1.00000000       1.39626340      -7.08630061       2.25466948      -0.00000000      -0.00000000      -0.00000000       1.90162972
2
Lattice="20.0 0.0 0.0 0.0 20.0 0.0 0.0 0.0 20.0" Properties=species:S:1:pos:R:3:quaternions:R:4:c_diameter\[1\]:R:1:c_diameter\[2\]:R:1:c_diameter\[3\]:R:1:angles:R:1:forces:R:3:torques:R:3 separation_distance=2.088888888888889 energy=-1.0449731300474832 pbc="F F F"
X       10.00000000      10.00000000      10.00000000       0.93969262       0.00000000       0.00000000       0.34202014       1.00000000       2.00000000       1.00000000       0.69813170       5.63889587      -0.14563189       0.00000000      -0.00000000      -0.00000000       2.36819185
X       12.08888889      10.00000000      10.00000000       0.50000000       0.00000000       0.00000000       0.86602540       1.00000000       2.00000000       1.00000000       2.09439510      -5.63889587       0.14563189      -0.00000000      -0.00000000      -0.00000000      -2.00876864
2
Lattice="20.0 0.0 0.0 0.0 20.0 0.0 0.0 0.0 20.0" Properties=species:S:1:pos:R:3:quaternions:R:4:c_diameter\[1\]:R:1:c_diameter\[2\]:R:1:c_diameter\[3\]:R:1:angles:R:1:forces:R:3:torques:R:3 separation_distance=2.088888888888889 energy=-0.49765566884439444 pbc="F F F"
X       10.00000000      10.00000000      10.00000000       0.93969262       0.00000000       0.00000000       0.34202014       1.00000000       2.00000000       1.00000000       0.69813170       2.40842983       0.00000000       0.00000000      -0.00000000      -0.00000000       1.05151616
X       12.08888889      10.00000000      10.00000000       0.34202014       0.00000000       0.00000000       0.93969262       1.00000000       2.00000000       1.00000000       2.44346095      -2.40842983      -0.00000000      -0.00000000      -0.00000000      -0.00000000      -1.05151616
2
Lattice="20.0 0.0 0.0 0.0 20.0 0.0 0.0 0.0 20.0" Properties=species:S:1:pos:R:3:quaternions:R:4:c_diameter\[1\]:R:1:c_diameter\[2\]:R:1:c_diameter\[3\]:R:1:angles:R:1:forces:R:3:torques:R:3 separation_distance=2.088888888888889 energy=-0.2678653321205873 pbc="F F F"
X       10.00000000      10.00000000      10.00000000       0.93969262       0.00000000       0.00000000       0.34202014       1.00000000       2.00000000       1.00000000       0.69813170       1.12968901      -0.07870878       0.00000000      -0.00000000      -0.00000000       0.52735083
X       12.08888889      10.00000000      10.00000000       0.17364818       0.00000000       0.00000000       0.98480775       1.00000000       2.00000000       1.00000000       2.79252680      -1.12968901       0.07870878      -0.00000000      -0.00000000      -0.00000000      -0.36408680
2
Lattice="20.0 0.0 0.0 0.0 20.0 0.0 0.0 0.0 20.0" Properties=species:S:1:pos:R:3:quaternions:R:4:c_diameter\[1\]:R:1:c_diameter\[2\]:R:1:c_diameter\[3\]:R:1:angles:R:1:forces:R:3:torques:R:3 separation_distance=2.088888888888889 energy=-0.20626501143274023 pbc="F F F"
X       10.00000000      10.00000000      10.00000000       0.93969262       0.00000000       0.00000000       0.34202014       1.00000000       2.00000000       1.00000000       0.69813170       0.77786069      -0.16598866       0.00000000      -0.00000000      -0.00000000       0.37353088
X       12.08888889      10.00000000      10.00000000       0.00000000       0.00000000       0.00000000       1.00000000       1.00000000       2.00000000       1.00000000       3.14159265      -0.77786069       0.16598866      -0.00000000      -0.00000000      -0.00000000      -0.02492829
2
Lattice="20.0 0.0 0.0 0.0 20.0 0.0 0.0 0.0 20.0" Properties=species:S:1:pos:R:3:quaternions:R:4:c_diameter\[1\]:R:1:c_diameter\[2\]:R:1:c_diameter\[3\]:R:1:angles:R:1:forces:R:3:torques:R:3 separation_distance=2.088888888888889 energy=-0.3999925317517508 pbc="F F F"
X       10.00000000      10.00000000      10.00000000       0.86602540       0.00000000       0.00000000       0.50000000       1.00000000       2.00000000       1.00000000       1.04719755       1.79858149      -0.31024583       0.00000000      -0.00000000      -0.00000000       0.74262113
X       12.08888889      10.00000000      10.00000000       1.00000000       0.00000000       0.00000000       0.00000000       1.00000000       2.00000000       1.00000000       0.00000000      -1.79858149       0.31024583      -0.00000000      -0.00000000      -0.00000000      -0.10249997
2
Lattice="20.0 0.0 0.0 0.0 20.0 0.0 0.0 0.0 20.0" Properties=species:S:1:pos:R:3:quaternions:R:4:c_diameter\[1\]:R:1:c_diameter\[2\]:R:1:c_diameter\[3\]:R:1:angles:R:1:forces:R:3:torques:R:3 separation_distance=2.088888888888889 energy=-0.4513069223323319 pbc="F F F"
X       10.00000000      10.00000000      10.00000000       0.86602540       0.00000000       0.00000000       0.50000000       1.00000000       2.00000000       1.00000000       1.04719755       1.93547657      -0.59215146       0.00000000      -0.00000000      -0.00000000       0.82857384
X       12.08888889      10.00000000      10.00000000       0.98480775       0.00000000       0.00000000       0.17364818       1.00000000       2.00000000       1.00000000       0.34906585      -1.93547657       0.59215146      -0.00000000      -0.00000000      -0.00000000       0.41023424
2
Lattice="20.0 0.0 0.0 0.0 20.0 0.0 0.0 0.0 20.0" Properties=species:S:1:pos:R:3:quaternions:R:4:c_diameter\[1\]:R:1:c_diameter\[2\]:R:1:c_diameter\[3\]:R:1:angles:R:1:forces:R:3:torques:R:3 separation_distance=2.088888888888889 energy=-0.7205854823840991 pbc="F F F"
X       10.00000000      10.00000000      10.00000000       0.86602540       0.00000000       0.00000000       0.50000000       1.00000000       2.00000000       1.00000000       1.04719755       3.15397910      -1.26354064       0.00000000      -0.00000000      -0.00000000       1.39861629
X       12.08888889      10.00000000      10.00000000       0.93969262       0.00000000       0.00000000       0.34202014       1.00000000       2.00000000       1.00000000       0.69813170      -3.15397910       1.26354064      -0.00000000      -0.00000000      -0.00000000       1.26052471
2
Lattice="20.0 0.0 0.0 0.0 20.0 0.0 0.0 0.0 20.0" Properties=species:S:1:pos:R:3:quaternions:R:4:c_diameter\[1\]:R:1:c_diameter\[2\]:R:1:c_diameter\[3\]:R:1:angles:R:1:forces:R:3:torques:R:3 separation_distance=2.088888888888889 energy=-1.4597901096351016 pbc="F F F"
X       10.00000000      10.00000000      10.00000000       0.86602540       0.00000000       0.00000000       0.50000000       1.00000000       2.00000000       1.00000000       1.04719755       7.14949713      -3.15563623       0.00000000      -0.00000000      -0.00000000       3.31896822
X       12.08888889      10.00000000      10.00000000       0.86602540       0.00000000       0.00000000       0.50000000       1.00000000       2.00000000       1.00000000       1.04719755      -7.14949713       3.15563623      -0.00000000      -0.00000000      -0.00000000       3.31896822
2
Lattice="20.0 0.0 0.0 0.0 20.0 0.0 0.0 0.0 20.0" Properties=species:S:1:pos:R:3:quaternions:R:4:c_diameter\[1\]:R:1:c_diameter\[2\]:R:1:c_diameter\[3\]:R:1:angles:R:1:forces:R:3:torques:R:3 separation_distance=2.088888888888889 energy=-1.0449731300474852 pbc="F F F"
X       10.00000000      10.00000000      10.00000000       0.86602540       0.00000000       0.00000000       0.50000000       1.00000000       2.00000000       1.00000000       1.04719755       5.63889587       0.14563189       0.00000000      -0.00000000      -0.00000000       2.00876864
X       12.08888889      10.00000000      10.00000000       0.34202014       0.00000000       0.00000000       0.93969262       1.00000000       2.00000000       1.00000000       2.44346095      -5.63889587      -0.14563189      -0.00000000      -0.00000000      -0.00000000      -2.36819185
2
Lattice="20.0 0.0 0.0 0.0 20.0 0.0 0.0 0.0 20.0" Properties=species:S:1:pos:R:3:quaternions:R:4:c_diameter\[1\]:R:1:c_diameter\[2\]:R:1:c_diameter\[3\]:R:1:angles:R:1:forces:R:3:torques:R:3 separation_distance=2.088888888888889 energy=-0.5403564723277622 pbc="F F F"
X       10.00000000      10.00000000      10.00000000       0.86602540       0.00000000       0.00000000       0.50000000       1.00000000       2.00000000       1.00000000       1.04719755       2.64940144      -0.11809216       0.00000000      -0.00000000      -0.00000000       1.01201035
X       12.08888889      10.00000000      10.00000000       0.17364818       0.00000000       0.00000000       0.98480775       1.00000000       2.00000000       1.00000000       2.79252680      -2.64940144       0.11809216      -0.00000000      -0.00000000      -0.00000000      -0.78964037
2
Lattice="20.0 0.0 0.0 0.0 20.0 0.0 0.0 0.0 20.0" Properties=species:S:1:pos:R:3:quaternions:R:4:c_diameter\[1\]:R:1:c_diameter\[2\]:R:1:c_diameter\[3\]:R:1:angles:R:1:forces:R:3:torques:R:3 separation_distance=2.088888888888889 energy=-0.3999925317517503 pbc="F F F"
X       10.00000000      10.00000000      10.00000000       0.86602540       0.00000000       0.00000000       0.50000000       1.00000000       2.00000000       1.00000000       1.04719755       1.79858149      -0.31024583       0.00000000      -0.00000000      -0.00000000       0.74262113
X       12.08888889      10.00000000      10.00000000       0.00000000       0.00000000       0.00000000       1.00000000       1.00000000       2.00000000       1.00000000       3.14159265      -1.79858149       0.31024583      -0.00000000      -0.00000000      -0.00000000      -0.10249997
2
Lattice="20.0 0.0 0.0 0.0 20.0 0.0 0.0 0.0 20.0" Properties=species:S:1:pos:R:3:quaternions:R:4:c_diameter\[1\]:R:1:c_diameter\[2\]:R:1:c_diameter\[3\]:R:1:angles:R:1:forces:R:3:torques:R:3 separation_distance=2.088888888888889 energy=-0.670564426572223 pbc="F F F"
X       10.00000000      10.00000000      10.00000000       0.76604444       0.00000000       0.00000000       0.64278761       1.00000000       2.00000000       1.00000000       1.39626340       3.40034369      -0.23684811       0.00000000      -0.00000000      -0.00000000       0.56778128
X       12.08888889      10.00000000      10.00000000       1.00000000       0.00000000       0.00000000       0.00000000       1.00000000       2.00000000       1.00000000       0.00000000      -3.40034369       0.23684811      -0.00000000      -0.00000000      -0.00000000      -0.09556935
2
Lattice="20.0 0.0 0.0 0.0 20.0 0.0 0.0 0.0 20.0" Properties=species:S:1:pos:R:3:quaternions:R:4:c_diameter\[1\]:R:1:c_diameter\[2\]:R:1:c_diameter\[3\]:R:1:angles:R:1:forces:R:3:torques:R:3 separation_distance=2.088888888888889 energy=-0.7891896078035904 pbc="F F F"
X       10.00000000      10.00000000      10.00000000       0.76604444       0.00000000       0.00000000       0.64278761       1.00000000       2.00000000       1.00000000       1.39626340       3.97502801      -0.82441955       0.00000000      -0.00000000      -0.00000000       0.86574769
X       12.08888889      10.00000000      10.00000000       0.98480775       0.00000000       0.00000000       0.17364818       1.00000000       2.00000000       1.00000000       0.34906585      -3.97502801       0.82441955      -0.00000000      -0.00000000      -0.00000000       0.83873810
2
Lattice="20.0 0.0 0.0 0.0 20.0 0.0 0.0 0.0 20.0" Properties=species:S:1:pos:R:3:quaternions:R:4:c_diameter\[1\]:R:1:c_diameter\[2\]:R:1:c_diameter\[3\]:R:1:angles:R:1:forces:R:3:torques:R:3 separation_distance=2.088888888888889 energy=-1.357982945228154 pbc="F F F"
X       10.00000000      10.00000000      10.00000000       0.76604444       0.00000000       0.00000000       0.64278761       1.00000000       2.00000000       1.00000000       1.39626340       7.08630061      -2.25466948       0.00000000      -0.00000000      -0.00000000       1.90162972
X       12.08888889      10.00000000      10.00000000       0.93969262       0.00000000       0.00000000       0.34202014       1.00000000       2.00000000       1.00000000       0.69813170      -7.08630061       2.25466948      -0.00000000      -0.00000000      -0.00000000       2.79234929
2
Lattice="20.0 0.0 0.0 0.0 20.0 0.0 0.0 0.0 20.0" Properties=species:S:1:pos:R:3:quaternions:R:4:c_diameter\[1\]:R:1:c_diameter\[2\]:R:1:c_diameter\[3\]:R:1:angles:R:1:forces:R:3:torques:R:3 separation_distance=2.088888888888889 energy=-0.8710279249456733 pbc="F F F"
X       10.00000000      10.00000000      10.00000000       0.76604444       0.00000000       0.00000000       0.64278761       1.00000000       2.00000000       1.00000000       1.39626340       4.58963260       0.29113830       0.00000000      -0.00000000      -0.00000000       0.53318922
X       12.08888889      10.00000000      10.00000000       0.17364818       0.00000000       0.00000000       0.98480775       1.00000000       2.00000000       1.00000000       2.79252680      -4.58963260      -0.29113830      -0.00000000      -0.00000000      -0.00000000      -1.18113782
2
Lattice="20.0 0.0 0.0 0.0 20.0 0.0 0.0 0.0 20.0" Properties=species:S:1:pos:R:3:quaternions:R:4:c_diameter\[1\]:R:1:c_diameter\[2\]:R:1:c_diameter\[3\]:R:1:angles:R:1:forces:R:3:torques:R:3 separation_distance=2.088888888888889 energy=-0.6705644265722227 pbc="F F F"
X       10.00000000      10.00000000      10.00000000       0.76604444       0.00000000       0.00000000       0.64278761       1.00000000       2.00000000       1.00000000       1.39626340       3.40034369      -0.23684811       0.00000000      -0.00000000      -0.00000000       0.56778128
X       12.08888889      10.00000000      10.00000000       0.00000000       0.00000000       0.00000000       1.00000000       1.00000000       2.00000000       1.00000000       3.14159265      -3.40034369       0.23684811      -0.00000000      -0.00000000      -0.00000000      -0.09556935
2
Lattice="20.0 0.0 0.0 0.0 20.0 0.0 0.0 0.0 20.0" Properties=species:S:1:pos:R:3:quaternions:R:4:c_diameter\[1\]:R:1:c_diameter\[2\]:R:1:c_diameter\[3\]:R:1:angles:R:1:forces:R:3:torques:R:3 separation_distance=2.088888888888889 energy=-0.670564426572223 pbc="F F F"
X       10.00000000      10.00000000      10.00000000       0.64278761       0.00000000       0.00000000       0.76604444       1.00000000       2.00000000       1.00000000       1.74532925       3.40034369       0.23684811       0.00000000      -0.00000000      -0.00000000      -0.56778128
X       12.08888889      10.00000000      10.00000000       1.00000000       0.00000000       0.00000000       0.00000000       1.00000000       2.00000000       1.00000000       0.00000000      -3.40034369      -0.23684811      -0.00000000      -0.00000000      -0.00000000       0.09556935
2
Lattice="20.0 0.0 0.0 0.0 20.0 0.0 0.0 0.0 20.0" Properties=species:S:1:pos:R:3:quaternions:R:4:c_diameter\[1\]:R:1:c_diameter\[2\]:R:1:c_diameter\[3\]:R:1:angles:R:1:forces:R:3:torques:R:3 separation_distance=2.088888888888889 energy=-0.8710279249456732 pbc="F F F"
X       10.00000000      10.00000000      10.00000000       0.64278761       0.00000000       0.00000000       0.76604444       1.00000000       2.00000000       1.00000000       1.74532925       4.58963260      -0.29113830       0.00000000      -0.00000000      -0.00000000      -0.53318922
X       12.08888889      10.00000000      10.00000000       0.98480775       0.00000000       0.00000000       0.17364818       1.00000000       2.00000000       1.00000000       0.34906585      -4.58963260       0.29113830      -0.00000000      -0.00000000      -0.00000000       1.18113782
2
Lattice="20.0 0.0 0.0 0.0 20.0 0.0 0.0 0.0 20.0" Properties=species:S:1:pos:R:3:quaternions:R:4:c_diameter\[1\]:R:1:c_diameter\[2\]:R:1:c_diameter\[3\]:R:1:angles:R:1:forces:R:3:torques:R:3 separation_distance=2.088888888888889 energy=-1.357982945228156 pbc="F F F"
X       10.00000000      10.00000000      10.00000000       0.64278761       0.00000000       0.00000000       0.76604444       1.00000000       2.00000000       1.00000000       1.74532925       7.08630061       2.25466948       0.00000000      -0.00000000      -0.00000000      -1.90162972
X       12.08888889      10.00000000      10.00000000       0.34202014       0.00000000       0.00000000       0.93969262       1.00000000       2.00000000       1.00000000       2.44346095      -7.08630061      -2.25466948      -0.00000000      -0.00000000      -0.00000000      -2.79234929
2
Lattice="20.0 0.0 0.0 0.0 20.0 0.0 0.0 0.0 20.0" Properties=species:S:1:pos:R:3:quaternions:R:4:c_diameter\[1\]:R:1:c_diameter\[2\]:R:1:c_diameter\[3\]:R:1:angles:R:1:forces:R:3:torques:R:3 separation_distance=2.088888888888889 energy=-0.789189607803591 pbc="F F F"
X       10.00000000      10.00000000      10.00000000       0.64278761       0.00000000       0.00000000       0.76604444       1.00000000       2.00000000       1.00000000       1.74532925       3.97502801       0.82441955       0.00000000      -0.00000000      -0.00000000      -0.86574769
X       12.08888889      10.00000000      10.00000000       0.17364818       0.00000000       0.00000000       0.98480775       1.00000000       2.00000000       1.00000000       2.79252680      -3.97502801      -0.82441955      -0.00000000      -0.00000000      -0.00000000      -0.83873810
2
Lattice="20.0 0.0 0.0 0.0 20.0 0.0 0.0 0.0 20.0" Properties=species:S:1:pos:R:3:quaternions:R:4:c_diameter\[1\]:R:1:c_diameter\[2\]:R:1:c_diameter\[3\]:R:1:angles:R:1:forces:R:3:torques:R:3 separation_distance=2.088888888888889 energy=-0.670564426572223 pbc="F F F"
X       10.00000000      10.00000000      10.00000000       0.64278761       0.00000000       0.00000000       0.76604444       1.00000000       2.00000000       1.00000000       1.74532925       3.40034369       0.23684811       0.00000000      -0.00000000      -0.00000000      -0.56778128
X       12.08888889      10.00000000      10.00000000       0.00000000       0.00000000       0.00000000       1.00000000       1.00000000       2.00000000       1.00000000       3.14159265      -3.40034369      -0.23684811      -0.00000000      -0.00000000      -0.00000000       0.09556935
2
Lattice="20.0 0.0 0.0 0.0 20.0 0.0 0.0 0.0 20.0" Properties=species:S:1:pos:R:3:quaternions:R:4:c_diameter\[1\]:R:1:c_diameter\[2\]:R:1:c_diameter\[3\]:R:1:angles:R:1:forces:R:3:torques:R:3 separation_distance=2.088888888888889 energy=-0.3999925317517509 pbc="F F F"
X       10.00000000      10.00000000      10.00000000       0.50000000       0.00000000       0.00000000       0.86602540       1.00000000       2.00000000       1.00000000       2.09439510       1.79858149       0.31024583       0.00000000      -0.00000000      -0.00000000      -0.74262113
X       12.08888889      10.00000000      10.00000000       1.00000000       0.00000000       0.00000000       0.00000000       1.00000000       2.00000000       1.00000000       0.00000000      -1.79858149      -0.31024583      -0.00000000      -0.00000000      -0.00000000       0.10249997
2
Lattice="20.0 0.0 0.0 0.0 20.0 0.0 0.0 0.0 20.0" Properties=species:S:1:pos:R:3:quaternions:R:4:c_diameter\[1\]:R:1:c_diameter\[2\]:R:1:c_diameter\[3\]:R:1:angles:R:1:forces:R:3:torques:R:3 separation_distance=2.088888888888889 energy=-0.5403564723277622 pbc="F F F"
X       10.00000000      10.00000000      10.00000000       0.50000000       0.00000000       0.00000000       0.86602540       1.00000000       2.00000000       1.00000000       2.09439510       2.64940144       0.11809216       0.00000000      -0.00000000      -0.00000000      -1.01201035
X       12.08888889      10.00000000      10.00000000       0.98480775       0.00000000       0.00000000       0.17364818       1.00000000       2.00000000       1.00000000       0.34906585      -2.64940144      -0.11809216      -0.00000000      -0.00000000      -0.00000000       0.78964037
2
Lattice="20.0 0.0 0.0 0.0 20.0 0.0 0.0 0.0 20.0" Properties=species:S:1:pos:R:3:quaternions:R:4:c_diameter\[1\]:R:1:c_diameter\[2\]:R:1:c_diameter\[3\]:R:1:angles:R:1:forces:R:3:torques:R:3 separation_distance=2.088888888888889 energy=-1.0449731300474832 pbc="F F F"
X       10.00000000      10.00000000      10.00000000       0.50000000       0.00000000       0.00000000       0.86602540       1.00000000       2.00000000       1.00000000       2.09439510       5.63889587      -0.14563189       0.00000000      -0.00000000      -0.00000000      -2.00876864
X       12.08888889      10.00000000      10.00000000       0.93969262       0.00000000       0.00000000       0.34202014       1.00000000       2.00000000       1.00000000       0.69813170      -5.63889587       0.14563189      -0.00000000      -0.00000000      -0.00000000       2.36819185
2
Lattice="20.0 0.0 0.0 0.0 20.0 0.0 0.0 0.0 20.0" Properties=species:S:1:pos:R:3:quaternions:R:4:c_diameter\[1\]:R:1:c_diameter\[2\]:R:1:c_diameter\[3\]:R:1:angles:R:1:forces:R:3:torques:R:3 separation_distance=2.088888888888889 energy=-1.459790109635107 pbc="F F F"
X       10.00000000      10.00000000      10.00000000       0.50000000       0.00000000       0.00000000       0.86602540       1.00000000       2.00000000       1.00000000       2.09439510       7.14949713       3.15563623       0.00000000      -0.00000000      -0.00000000      -3.31896822
X       12.08888889      10.00000000      10.00000000       0.50000000       0.00000000       0.00000000       0.86602540       1.00000000       2.00000000       1.00000000       2.09439510      -7.14949713      -3.15563623      -0.00000000      -0.00000000      -0.00000000      -3.31896822
2
Lattice="20.0 0.0 0.0 0.0 20.0 0.0 0.0 0.0 20.0" Properties=species:S:1:pos:R:3:quaternions:R:4:c_diameter\[1\]:R:1:c_diameter\[2\]:R:1:c_diameter\[3\]:R:1:angles:R:1:forces:R:3:torques:R:3 separation_distance=2.088888888888889 energy=-0.7205854823841003 pbc="F F F"
X       10.00000000      10.00000000      10.00000000       0.50000000       0.00000000       0.00000000       0.86602540       1.00000000       2.00000000       1.00000000       2.09439510       3.15397910       1.26354064       0.00000000      -0.00000000      -0.00000000      -1.39861629
X       12.08888889      10.00000000      10.00000000       0.34202014       0.00000000       0.00000000       0.93969262       1.00000000       2.00000000       1.00000000       2.44346095      -3.15397910      -1.26354064      -0.00000000      -0.00000000      -0.00000000      -1.26052471
2
Lattice="20.0 0.0 0.0 0.0 20.0 0.0 0.0 0.0 20.0" Properties=species:S:1:pos:R:3:quaternions:R:4:c_diameter\[1\]:R:1:c_diameter\[2\]:R:1:c_diameter\[3\]:R:1:angles:R:1:forces:R:3:torques:R:3 separation_distance=2.088888888888889 energy=-0.4513069223323329 pbc="F F F"
X       10.00000000      10.00000000      10.00000000       0.50000000       0.00000000       0.00000000       0.86602540       1.00000000       2.00000000       1.00000000       2.09439510       1.93547657       0.59215146       0.00000000      -0.00000000      -0.00000000      -0.82857384
X       12.08888889      10.00000000      10.00000000       0.17364818       0.00000000       0.00000000       0.98480775       1.00000000       2.00000000       1.00000000       2.79252680      -1.93547657      -0.59215146      -0.00000000      -0.00000000      -0.00000000      -0.41023424
2
Lattice="20.0 0.0 0.0 0.0 20.0 0.0 0.0 0.0 20.0" Properties=species:S:1:pos:R:3:quaternions:R:4:c_diameter\[1\]:R:1:c_diameter\[2\]:R:1:c_diameter\[3\]:R:1:angles:R:1:forces:R:3:torques:R:3 separation_distance=2.088888888888889 energy=-0.39999253175175103 pbc="F F F"
X       10.00000000      10.00000000      10.00000000       0.50000000       0.00000000       0.00000000       0.86602540       1.00000000       2.00000000       1.00000000       2.09439510       1.79858149       0.31024583       0.00000000      -0.00000000      -0.00000000      -0.74262113
X       12.08888889      10.00000000      10.00000000       0.00000000       0.00000000       0.00000000       1.00000000       1.00000000       2.00000000       1.00000000       3.14159265      -1.79858149      -0.31024583      -0.00000000      -0.00000000      -0.00000000       0.10249997
2
Lattice="20.0 0.0 0.0 0.0 20.0 0.0 0.0 0.0 20.0" Properties=species:S:1:pos:R:3:quaternions:R:4:c_diameter\[1\]:R:1:c_diameter\[2\]:R:1:c_diameter\[3\]:R:1:angles:R:1:forces:R:3:torques:R:3 separation_distance=2.088888888888889 energy=-0.2062650114327403 pbc="F F F"
X       10.00000000      10.00000000      10.00000000       0.34202014       0.00000000       0.00000000       0.93969262       1.00000000       2.00000000       1.00000000       2.44346095       0.77786069       0.16598866       0.00000000      -0.00000000      -0.00000000      -0.37353088
X       12.08888889      10.00000000      10.00000000       1.00000000       0.00000000       0.00000000       0.00000000       1.00000000       2.00000000       1.00000000       0.00000000      -0.77786069      -0.16598866      -0.00000000      -0.00000000      -0.00000000       0.02492829
2
Lattice="20.0 0.0 0.0 0.0 20.0 0.0 0.0 0.0 20.0" Properties=species:S:1:pos:R:3:quaternions:R:4:c_diameter\[1\]:R:1:c_diameter\[2\]:R:1:c_diameter\[3\]:R:1:angles:R:1:forces:R:3:torques:R:3 separation_distance=2.088888888888889 energy=-0.26786533212058733 pbc="F F F"
X       10.00000000      10.00000000      10.00000000       0.34202014       0.00000000       0.00000000       0.93969262       1.00000000       2.00000000       1.00000000       2.44346095       1.12968901       0.07870878       0.00000000      -0.00000000      -0.00000000      -0.52735083
X       12.08888889      10.00000000      10.00000000       0.98480775       0.00000000       0.00000000       0.17364818       1.00000000       2.00000000       1.00000000       0.34906585      -1.12968901      -0.07870878      -0.00000000      -0.00000000      -0.00000000       0.36408680
2
Lattice="20.0 0.0 0.0 0.0 20.0 0.0 0.0 0.0 20.0" Properties=species:S:1:pos:R:3:quaternions:R:4:c_diameter\[1\]:R:1:c_diameter\[2\]:R:1:c_diameter\[3\]:R:1:angles:R:1:forces:R:3:torques:R:3 separation_distance=2.088888888888889 energy=-0.49765566884439444 pbc="F F F"
X       10.00000000      10.00000000      10.00000000       0.34202014       0.00000000       0.00000000       0.93969262       1.00000000       2.00000000       1.00000000       2.44346095       2.40842983       0.00000000       0.00000000      -0.00000000      -0.00000000      -1.05151616
X       12.08888889      10.00000000      10.00000000       0.93969262       0.00000000       0.00000000       0.34202014       1.00000000       2.00000000       1.00000000       0.69813170      -2.40842983      -0.00000000      -0.00000000      -0.00000000      -0.00000000       1.05151616
2
Lattice="20.0 0.0 0.0 0.0 20.0 0.0 0.0 0.0 20.0" Properties=species:S:1:pos:R:3:quaternions:R:4:c_diameter\[1\]:R:1:c_diameter\[2\]:R:1:c_diameter\[3\]:R:1:angles:R:1:forces:R:3:torques:R:3 separation_distance=2.088888888888889 energy=-1.0449731300474852 pbc="F F F"
X       10.00000000      10.00000000      10.00000000       0.34202014       0.00000000       0.00000000       0.93969262       1.00000000       2.00000000       1.00000000       2.44346095       5.63889587       0.14563189       0.00000000      -0.00000000      -0.00000000      -2.36819185
X       12.08888889      10.00000000      10.00000000       0.86602540       0.00000000       0.00000000       0.50000000       1.00000000       2.00000000       1.00000000       1.04719755      -5.63889587      -0.14563189      -0.00000000      -0.00000000      -0.00000000       2.00876864
2
Lattice="20.0 0.0 0.0 0.0 20.0 0.0 0.0 0.0 20.0" Properties=species:S:1:pos:R:3:quaternions:R:4:c_diameter\[1\]:R:1:c_diameter\[2\]:R:1:c_diameter\[3\]:R:1:angles:R:1:forces:R:3:torques:R:3 separation_distance=2.088888888888889 energy=-1.357982945228156 pbc="F F F"
X       10.00000000      10.00000000      10.00000000       0.34202014       0.00000000       0.00000000       0.93969262       1.00000000       2.00000000       1.00000000       2.44346095       7.08630061       2.25466948       0.00000000      -0.00000000      -0.00000000      -2.79234929
X       12.08888889      10.00000000      10.00000000       0.64278761       0.00000000       0.00000000       0.76604444       1.00000000       2.00000000       1.00000000       1.74532925      -7.08630061      -2.25466948      -0.00000000      -0.00000000      -0.00000000      -1.90162972
2
Lattice="20.0 0.0 0.0 0.0 20.0 0.0 0.0 0.0 20.0" Properties=species:S:1:pos:R:3:quaternions:R:4:c_diameter\[1\]:R:1:c_diameter\[2\]:R:1:c_diameter\[3\]:R:1:angles:R:1:forces:R:3:torques:R:3 separation_distance=2.088888888888889 energy=-0.7205854823841003 pbc="F F F"
X       10.00000000      10.00000000      10.00000000       0.34202014       0.00000000       0.00000000       0.93969262       1.00000000       2.00000000       1.00000000       2.44346095       3.15397910       1.26354064       0.00000000      -0.00000000      -0.00000000      -1.26052471
X       12.08888889      10.00000000      10.00000000       0.50000000       0.00000000       0.00000000       0.86602540       1.00000000       2.00000000       1.00000000       2.09439510      -3.15397910      -1.26354064      -0.00000000      -0.00000000      -0.00000000      -1.39861629
2
Lattice="20.0 0.0 0.0 0.0 20.0 0.0 0.0 0.0 20.0" Properties=species:S:1:pos:R:3:quaternions:R:4:c_diameter\[1\]:R:1:c_diameter\[2\]:R:1:c_diameter\[3\]:R:1:angles:R:1:forces:R:3:torques:R:3 separation_distance=2.088888888888889 energy=-0.3858004467170288 pbc="F F F"
X       10.00000000      10.00000000      10.00000000       0.34202014       0.00000000       0.00000000       0.93969262       1.00000000       2.00000000       1.00000000       2.44346095       1.44976483       0.58978301       0.00000000      -0.00000000      -0.00000000      -0.62158505
X       12.08888889      10.00000000      10.00000000       0.34202014       0.00000000       0.00000000       0.93969262       1.00000000       2.00000000       1.00000000       2.44346095      -1.44976483      -0.58978301      -0.00000000      -0.00000000      -0.00000000      -0.62158505
2
Lattice="20.0 0.0 0.0 0.0 20.0 0.0 0.0 0.0 20.0" Properties=species:S:1:pos:R:3:quaternions:R:4:c_diameter\[1\]:R:1:c_diameter\[2\]:R:1:c_diameter\[3\]:R:1:angles:R:1:forces:R:3:torques:R:3 separation_distance=2.088888888888889 energy=-0.24313277283971357 pbc="F F F"
X       10.00000000      10.00000000      10.00000000       0.34202014       0.00000000       0.00000000       0.93969262       1.00000000       2.00000000       1.00000000       2.44346095       0.87216595       0.30383811       0.00000000      -0.00000000      -0.00000000      -0.39891552
X       12.08888889      10.00000000      10.00000000       0.17364818       0.00000000       0.00000000       0.98480775       1.00000000       2.00000000       1.00000000       2.79252680      -0.87216595      -0.30383811      -0.00000000      -0.00000000      -0.00000000      -0.24038468
2
Lattice="20.0 0.0 0.0 0.0 20.0 0.0 0.0 0.0 20.0" Properties=species:S:1:pos:R:3:quaternions:R:4:c_diameter\[1\]:R:1:c_diameter\[2\]:R:1:c_diameter\[3\]:R:1:angles:R:1:forces:R:3:torques:R:3 separation_distance=2.088888888888889 energy=-0.20626501143274 pbc="F F F"
X       10.00000000      10.00000000      10.00000000       0.34202014       0.00000000       0.00000000       0.93969262       1.00000000       2.00000000       1.00000000       2.44346095       0.77786069       0.16598866       0.00000000      -0.00000000      -0.00000000      -0.37353088
X       12.08888889      10.00000000      10.00000000       0.00000000       0.00000000       0.00000000       1.00000000       1.00000000       2.00000000       1.00000000       3.14159265      -0.77786069      -0.16598866      -0.00000000      -0.00000000      -0.00000000       0.02492829
2
Lattice="20.0 0.0 0.0 0.0 20.0 0.0 0.0 0.0 20.0" Properties=species:S:1:pos:R:3:quaternions:R:4:c_diameter\[1\]:R:1:c_diameter\[2\]:R:1:c_diameter\[3\]:R:1:angles:R:1:forces:R:3:torques:R:3 separation_distance=2.088888888888889 energy=-0.12128397512484931 pbc="F F F"
X       10.00000000      10.00000000      10.00000000       0.17364818       0.00000000       0.00000000       0.98480775       1.00000000       2.00000000       1.00000000       2.79252680       0.39699832       0.06871807       0.00000000      -0.00000000      -0.00000000      -0.14225824
X       12.08888889      10.00000000      10.00000000       1.00000000       0.00000000       0.00000000       0.00000000       1.00000000       2.00000000       1.00000000       0.00000000      -0.39699832      -0.06871807      -0.00000000      -0.00000000      -0.00000000      -0.00211944
2
Lattice="20.0 0.0 0.0 0.0 20.0 0.0 0.0 0.0 20.0" Properties=species:S:1:pos:R:3:quaternions:R:4:c_diameter\[1\]:R:1:c_diameter\[2\]:R:1:c_diameter\[3\]:R:1:angles:R:1:forces:R:3:torques:R:3 separation_distance=2.088888888888889 energy=-0.15093534846454582 pbc="F F F"
X       10.00000000      10.00000000      10.00000000       0.17364818       0.00000000       0.00000000       0.98480775       1.00000000       2.00000000       1.00000000       2.79252680       0.54593314       0.00000000       0.00000000      -0.00000000      -0.00000000      -0.18687827
X       12.08888889      10.00000000      10.00000000       0.98480775       0.00000000       0.00000000       0.17364818       1.00000000       2.00000000       1.00000000       0.34906585      -0.54593314      -0.00000000      -0.00000000      -0.00000000      -0.00000000       0.18687827
2
Lattice="20.0 0.0 0.0 0.0 20.0 0.0 0.0 0.0 20.0" Properties=species:S:1:pos:R:3:quaternions:R:4:c_diameter\[1\]:R:1:c_diameter\[2\]:R:1:c_diameter\[3\]:R:1:angles:R:1:forces:R:3:torques:R:3 separation_distance=2.088888888888889 energy=-0.2678653321205873 pbc="F F F"
X       10.00000000      10.00000000      10.00000000       0.17364818       0.00000000       0.00000000       0.98480775       1.00000000       2.00000000       1.00000000       2.79252680       1.12968901      -0.07870878       0.00000000      -0.00000000      -0.00000000      -0.36408680
X       12.08888889      10.00000000      10.00000000       0.93969262       0.00000000       0.00000000       0.34202014       1.00000000       2.00000000       1.00000000       0.69813170      -1.12968901       0.07870878      -0.00000000      -0.00000000      -0.00000000       0.52735083
2
Lattice="20.0 0.0 0.0 0.0 20.0 0.0 0.0 0.0 20.0" Properties=species:S:1:pos:R:3:quaternions:R:4:c_diameter\[1\]:R:1:c_diameter\[2\]:R:1:c_diameter\[3\]:R:1:angles:R:1:forces:R:3:torques:R:3 separation_distance=2.088888888888889 energy=-0.5403564723277622 pbc="F F F"
X       10.00000000      10.00000000      10.00000000       0.17364818       0.00000000       0.00000000       0.98480775       1.00000000       2.00000000       1.00000000       2.79252680       2.64940144      -0.11809216       0.00000000      -0.00000000      -0.00000000      -0.78964037
X       12.08888889      10.00000000      10.00000000       0.86602540       0.00000000       0.00000000       0.50000000       1.00000000       2.00000000       1.00000000       1.04719755      -2.64940144       0.11809216      -0.00000000      -0.00000000      -0.00000000       1.01201035
2
Lattice="20.0 0.0 0.0 0.0 20.0 0.0 0.0 0.0 20.0" Properties=species:S:1:pos:R:3:quaternions:R:4:c_diameter\[1\]:R:1:c_diameter\[2\]:R:1:c_diameter\[3\]:R:1:angles:R:1:forces:R:3:torques:R:3 separation_distance=2.088888888888889 energy=-0.8710279249456733 pbc="F F F"
X       10.00000000      10.00000000      10.00000000       0.17364818       0.00000000       0.00000000       0.98480775       1.00000000       2.00000000       1.00000000       2.79252680       4.58963260       0.29113830       0.00000000      -0.00000000      -0.00000000      -1.18113782
X       12.08888889      10.00000000      10.00000000       0.76604444       0.00000000       0.00000000       0.64278761       1.00000000       2.00000000       1.00000000       1.39626340      -4.58963260      -0.29113830      -0.00000000      -0.00000000      -0.00000000       0.53318922
2
Lattice="20.0 0.0 0.0 0.0 20.0 0.0 0.0 0.0 20.0" Properties=species:S:1:pos:R:3:quaternions:R:4:c_diameter\[1\]:R:1:c_diameter\[2\]:R:1:c_diameter\[3\]:R:1:angles:R:1:forces:R:3:torques:R:3 separation_distance=2.088888888888889 energy=-0.789189607803591 pbc="F F F"
X       10.00000000      10.00000000      10.00000000       0.17364818       0.00000000       0.00000000       0.98480775       1.00000000       2.00000000       1.00000000       2.79252680       3.97502801       0.82441955       0.00000000      -0.00000000      -0.00000000      -0.83873810
X       12.08888889      10.00000000      10.00000000       0.64278761       0.00000000       0.00000000       0.76604444       1.00000000       2.00000000       1.00000000       1.74532925      -3.97502801      -0.82441955      -0.00000000      -0.00000000      -0.00000000      -0.86574769
2
Lattice="20.0 0.0 0.0 0.0 20.0 0.0 0.0 0.0 20.0" Properties=species:S:1:pos:R:3:quaternions:R:4:c_diameter\[1\]:R:1:c_diameter\[2\]:R:1:c_diameter\[3\]:R:1:angles:R:1:forces:R:3:torques:R:3 separation_distance=2.088888888888889 energy=-0.4513069223323329 pbc="F F F"
X       10.00000000      10.00000000      10.00000000       0.17364818       0.00000000       0.00000000       0.98480775       1.00000000       2.00000000       1.00000000       2.79252680       1.93547657       0.59215146       0.00000000      -0.00000000      -0.00000000      -0.41023424
X       12.08888889      10.00000000      10.00000000       0.50000000       0.00000000       0.00000000       0.86602540       1.00000000       2.00000000       1.00000000       2.09439510      -1.93547657      -0.59215146      -0.00000000      -0.00000000      -0.00000000      -0.82857384
2
Lattice="20.0 0.0 0.0 0.0 20.0 0.0 0.0 0.0 20.0" Properties=species:S:1:pos:R:3:quaternions:R:4:c_diameter\[1\]:R:1:c_diameter\[2\]:R:1:c_diameter\[3\]:R:1:angles:R:1:forces:R:3:torques:R:3 separation_distance=2.088888888888889 energy=-0.24313277283971357 pbc="F F F"
X       10.00000000      10.00000000      10.00000000       0.17364818       0.00000000       0.00000000       0.98480775       1.00000000       2.00000000       1.00000000       2.79252680       0.87216595       0.30383811       0.00000000      -0.00000000      -0.00000000      -0.24038468
X       12.08888889      10.00000000      10.00000000       0.34202014       0.00000000       0.00000000       0.93969262       1.00000000       2.00000000       1.00000000       2.44346095      -0.87216595      -0.30383811      -0.00000000      -0.00000000      -0.00000000      -0.39891552
2
Lattice="20.0 0.0 0.0 0.0 20.0 0.0 0.0 0.0 20.0" Properties=species:S:1:pos:R:3:quaternions:R:4:c_diameter\[1\]:R:1:c_diameter\[2\]:R:1:c_diameter\[3\]:R:1:angles:R:1:forces:R:3:torques:R:3 separation_distance=2.088888888888889 energy=-0.14973203383757366 pbc="F F F"
X       10.00000000      10.00000000      10.00000000       0.17364818       0.00000000       0.00000000       0.98480775       1.00000000       2.00000000       1.00000000       2.79252680       0.48603371       0.15624594       0.00000000      -0.00000000      -0.00000000      -0.16404477
X       12.08888889      10.00000000      10.00000000       0.17364818       0.00000000       0.00000000       0.98480775       1.00000000       2.00000000       1.00000000       2.79252680      -0.48603371      -0.15624594      -0.00000000      -0.00000000      -0.00000000      -0.16404477
2
Lattice="20.0 0.0 0.0 0.0 20.0 0.0 0.0 0.0 20.0" Properties=species:S:1:pos:R:3:quaternions:R:4:c_diameter\[1\]:R:1:c_diameter\[2\]:R:1:c_diameter\[3\]:R:1:angles:R:1:forces:R:3:torques:R:3 separation_distance=2.088888888888889 energy=-0.12128397512484951 pbc="F F F"
X       10.00000000      10.00000000      10.00000000       0.17364818       0.00000000       0.00000000       0.98480775       1.00000000       2.00000000       1.00000000       2.79252680       0.39699832       0.06871807       0.00000000      -0.00000000      -0.00000000      -0.14225824
X       12.08888889      10.00000000      10.00000000       0.00000000       0.00000000       0.00000000       1.00000000       1.00000000       2.00000000       1.00000000       3.14159265      -0.39699832      -0.06871807      -0.00000000      -0.00000000      -0.00000000      -0.00211944
2
Lattice="20.0 0.0 0.0 0.0 20.0 0.0 0.0 0.0 20.0" Properties=species:S:1:pos:R:3:quaternions:R:4:c_diameter\[1\]:R:1:c_diameter\[2\]:R:1:c_diameter\[3\]:R:1:angles:R:1:forces:R:3:torques:R:3 separation_distance=2.088888888888889 energy=-0.09766503688642762 pbc="F F F"
X       10.00000000      10.00000000      10.00000000       0.00000000       0.00000000       0.00000000       1.00000000       1.00000000       2.00000000       1.00000000       3.14159265       0.30310870       0.00000000       0.00000000      -0.00000000      -0.00000000      -0.00000000
X       12.08888889      10.00000000      10.00000000       1.00000000       0.00000000       0.00000000       0.00000000       1.00000000       2.00000000       1.00000000       0.00000000      -0.30310870      -0.00000000      -0.00000000      -0.00000000      -0.00000000      -0.00000000
2
Lattice="20.0 0.0 0.0 0.0 20.0 0.0 0.0 0.0 20.0" Properties=species:S:1:pos:R:3:quaternions:R:4:c_diameter\[1\]:R:1:c_diameter\[2\]:R:1:c_diameter\[3\]:R:1:angles:R:1:forces:R:3:torques:R:3 separation_distance=2.088888888888889 energy=-0.12128397512484951 pbc="F F F"
X       10.00000000      10.00000000      10.00000000       0.00000000       0.00000000       0.00000000       1.00000000       1.00000000       2.00000000       1.00000000       3.14159265       0.39699832      -0.06871807       0.00000000      -0.00000000      -0.00000000       0.00211944
X       12.08888889      10.00000000      10.00000000       0.98480775       0.00000000       0.00000000       0.17364818       1.00000000       2.00000000       1.00000000       0.34906585      -0.39699832       0.06871807      -0.00000000      -0.00000000      -0.00000000       0.14225824
2
Lattice="20.0 0.0 0.0 0.0 20.0 0.0 0.0 0.0 20.0" Properties=species:S:1:pos:R:3:quaternions:R:4:c_diameter\[1\]:R:1:c_diameter\[2\]:R:1:c_diameter\[3\]:R:1:angles:R:1:forces:R:3:torques:R:3 separation_distance=2.088888888888889 energy=-0.20626501143274023 pbc="F F F"
X       10.00000000      10.00000000      10.00000000       0.00000000       0.00000000       0.00000000       1.00000000       1.00000000       2.00000000       1.00000000       3.14159265       0.77786069      -0.16598866       0.00000000      -0.00000000      -0.00000000      -0.02492829
X       12.08888889      10.00000000      10.00000000       0.93969262       0.00000000       0.00000000       0.34202014       1.00000000       2.00000000       1.00000000       0.69813170      -0.77786069       0.16598866      -0.00000000      -0.00000000      -0.00000000       0.37353088
2
Lattice="20.0 0.0 0.0 0.0 20.0 0.0 0.0 0.0 20.0" Properties=species:S:1:pos:R:3:quaternions:R:4:c_diameter\[1\]:R:1:c_diameter\[2\]:R:1:c_diameter\[3\]:R:1:angles:R:1:forces:R:3:torques:R:3 separation_distance=2.088888888888889 energy=-0.3999925317517503 pbc="F F F"
X       10.00000000      10.00000000      10.00000000       0.00000000       0.00000000       0.00000000       1.00000000       1.00000000       2.00000000       1.00000000       3.14159265       1.79858149      -0.31024583       0.00000000      -0.00000000      -0.00000000      -0.10249997
X       12.08888889      10.00000000      10.00000000       0.86602540       0.00000000       0.00000000       0.50000000       1.00000000       2.00000000       1.00000000       1.04719755      -1.79858149       0.31024583      -0.00000000      -0.00000000      -0.00000000       0.74262113
2
Lattice="20.0 0.0 0.0 0.0 20.0 0.0 0.0 0.0 20.0" Properties=species:S:1:pos:R:3:quaternions:R:4:c_diameter\[1\]:R:1:c_diameter\[2\]:R:1:c_diameter\[3\]:R:1:angles:R:1:forces:R:3:torques:R:3 separation_distance=2.088888888888889 energy=-0.6705644265722227 pbc="F F F"
X       10.00000000      10.00000000      10.00000000       0.00000000       0.00000000       0.00000000       1.00000000       1.00000000       2.00000000       1.00000000       3.14159265       3.40034369      -0.23684811       0.00000000      -0.00000000      -0.00000000      -0.09556935
X       12.08888889      10.00000000      10.00000000       0.76604444       0.00000000       0.00000000       0.64278761       1.00000000       2.00000000       1.00000000       1.39626340      -3.40034369       0.23684811      -0.00000000      -0.00000000      -0.00000000       0.56778128
2
Lattice="20.0 0.0 0.0 0.0 20.0 0.0 0.0 0.0 20.0" Properties=species:S:1:pos:R:3:quaternions:R:4:c_diameter\[1\]:R:1:c_diameter\[2\]:R:1:c_diameter\[3\]:R:1:angles:R:1:forces:R:3:torques:R:3 separation_distance=2.088888888888889 energy=-0.670564426572223 pbc="F F F"
X       10.00000000      10.00000000      10.00000000       0.00000000       0.00000000       0.00000000       1.00000000       1.00000000       2.00000000       1.00000000       3.14159265       3.40034369       0.23684811       0.00000000      -0.00000000      -0.00000000       0.09556935
X       12.08888889      10.00000000      10.00000000       0.64278761       0.00000000       0.00000000       0.76604444       1.00000000       2.00000000       1.00000000       1.74532925      -3.40034369      -0.23684811      -0.00000000      -0.00000000      -0.00000000      -0.56778128
2
Lattice="20.0 0.0 0.0 0.0 20.0 0.0 0.0 0.0 20.0" Properties=species:S:1:pos:R:3:quaternions:R:4:c_diameter\[1\]:R:1:c_diameter\[2\]:R:1:c_diameter\[3\]:R:1:angles:R:1:forces:R:3:torques:R:3 separation_distance=2.088888888888889 energy=-0.39999253175175103 pbc="F F F"
X       10.00000000      10.00000000      10.00000000       0.00000000       0.00000000       0.00000000       1.00000000       1.00000000       2.00000000       1.00000000       3.14159265       1.79858149       0.31024583       0.00000000      -0.00000000      -0.00000000       0.10249997
X       12.08888889      10.00000000      10.00000000       0.50000000       0.00000000       0.00000000       0.86602540       1.00000000       2.00000000       1.00000000       2.09439510      -1.79858149      -0.31024583      -0.00000000      -0.00000000      -0.00000000      -0.74262113
2
Lattice="20.0 0.0 0.0 0.0 20.0 0.0 0.0 0.0 20.0" Properties=species:S:1:pos:R:3:quaternions:R:4:c_diameter\[1\]:R:1:c_diameter\[2\]:R:1:c_diameter\[3\]:R:1:angles:R:1:forces:R:3:torques:R:3 separation_distance=2.088888888888889 energy=-0.20626501143274 pbc="F F F"
X       10.00000000      10.00000000      10.00000000       0.00000000       0.00000000       0.00000000       1.00000000       1.00000000       2.00000000       1.00000000       3.14159265       0.77786069       0.16598866       0.00000000      -0.00000000      -0.00000000       0.02492829
X       12.08888889      10.00000000      10.00000000       0.34202014       0.00000000       0.00000000       0.93969262       1.00000000       2.00000000       1.00000000       2.44346095      -0.77786069      -0.16598866      -0.00000000      -0.00000000      -0.00000000      -0.37353088
2
Lattice="20.0 0.0 0.0 0.0 20.0 0.0 0.0 0.0 20.0" Properties=species:S:1:pos:R:3:quaternions:R:4:c_diameter\[1\]:R:1:c_diameter\[2\]:R:1:c_diameter\[3\]:R:1:angles:R:1:forces:R:3:torques:R:3 separation_distance=2.088888888888889 energy=-0.12128397512484951 pbc="F F F"
X       10.00000000      10.00000000      10.00000000       0.00000000       0.00000000       0.00000000       1.00000000       1.00000000       2.00000000       1.00000000       3.14159265       0.39699832       0.06871807       0.00000000      -0.00000000      -0.00000000      -0.00211944
X       12.08888889      10.00000000      10.00000000       0.17364818       0.00000000       0.00000000       0.98480775       1.00000000       2.00000000       1.00000000       2.79252680      -0.39699832      -0.06871807      -0.00000000      -0.00000000      -0.00000000      -0.14225824
2
Lattice="20.0 0.0 0.0 0.0 20.0 0.0 0.0 0.0 20.0" Properties=species:S:1:pos:R:3:quaternions:R:4:c_diameter\[1\]:R:1:c_diameter\[2\]:R:1:c_diameter\[3\]:R:1:angles:R:1:forces:R:3:torques:R:3 separation_distance=2.088888888888889 energy=-0.09766503688642762 pbc="F F F"
X       10.00000000      10.00000000      10.00000000       0.00000000       0.00000000       0.00000000       1.00000000       1.00000000       2.00000000       1.00000000       3.14159265       0.30310870       0.00000000       0.00000000      -0.00000000      -0.00000000      -0.00000000
X       12.08888889      10.00000000      10.00000000       0.00000000       0.00000000       0.00000000       1.00000000       1.00000000       2.00000000       1.00000000       3.14159265      -0.30310870      -0.00000000      -0.00000000      -0.00000000      -0.00000000      -0.00000000
2
Lattice="20.0 0.0 0.0 0.0 20.0 0.0 0.0 0.0 20.0" Properties=species:S:1:pos:R:3:quaternions:R:4:c_diameter\[1\]:R:1:c_diameter\[2\]:R:1:c_diameter\[3\]:R:1:angles:R:1:forces:R:3:torques:R:3 separation_distance=2.2444444444444445 energy=-0.06253667733015994 pbc="F F F"
X       10.00000000      10.00000000      10.00000000       1.00000000       0.00000000       0.00000000       0.00000000       1.00000000       2.00000000       1.00000000       0.00000000       0.16569676       0.00000000       0.00000000      -0.00000000      -0.00000000      -0.00000000
X       12.24444444      10.00000000      10.00000000       1.00000000       0.00000000       0.00000000       0.00000000       1.00000000       2.00000000       1.00000000       0.00000000      -0.16569676      -0.00000000      -0.00000000      -0.00000000      -0.00000000      -0.00000000
2
Lattice="20.0 0.0 0.0 0.0 20.0 0.0 0.0 0.0 20.0" Properties=species:S:1:pos:R:3:quaternions:R:4:c_diameter\[1\]:R:1:c_diameter\[2\]:R:1:c_diameter\[3\]:R:1:angles:R:1:forces:R:3:torques:R:3 separation_distance=2.2444444444444445 energy=-0.07587841761714992 pbc="F F F"
X       10.00000000      10.00000000      10.00000000       1.00000000       0.00000000       0.00000000       0.00000000       1.00000000       2.00000000       1.00000000       0.00000000       0.21096831      -0.03810247       0.00000000      -0.00000000      -0.00000000       0.00716865
X       12.24444444      10.00000000      10.00000000       0.98480775       0.00000000       0.00000000       0.17364818       1.00000000       2.00000000       1.00000000       0.34906585      -0.21096831       0.03810247      -0.00000000      -0.00000000      -0.00000000       0.07861839
2
Lattice="20.0 0.0 0.0 0.0 20.0 0.0 0.0 0.0 20.0" Properties=species:S:1:pos:R:3:quaternions:R:4:c_diameter\[1\]:R:1:c_diameter\[2\]:R:1:c_diameter\[3\]:R:1:angles:R:1:forces:R:3:torques:R:3 separation_distance=2.2444444444444445 energy=-0.12055415200420654 pbc="F F F"
X       10.00000000      10.00000000      10.00000000       1.00000000       0.00000000       0.00000000       0.00000000       1.00000000       2.00000000       1.00000000       0.00000000       0.38130458      -0.08359334       0.00000000      -0.00000000      -0.00000000       0.00113294
X       12.24444444      10.00000000      10.00000000       0.93969262       0.00000000       0.00000000       0.34202014       1.00000000       2.00000000       1.00000000       0.69813170      -0.38130458       0.08359334      -0.00000000      -0.00000000      -0.00000000       0.18706234
2
Lattice="20.0 0.0 0.0 0.0 20.0 0.0 0.0 0.0 20.0" Properties=species:S:1:pos:R:3:quaternions:R:4:c_diameter\[1\]:R:1:c_diameter\[2\]:R:1:c_diameter\[3\]:R:1:angles:R:1:forces:R:3:torques:R:3 separation_distance=2.2444444444444445 energy=-0.21148422168317646 pbc="F F F"
X       10.00000000      10.00000000      10.00000000       1.00000000       0.00000000       0.00000000       0.00000000       1.00000000       2.00000000       1.00000000       0.00000000       0.78849785      -0.13668698       0.00000000      -0.00000000      -0.00000000      -0.02653423
X       12.24444444      10.00000000      10.00000000       0.86602540       0.00000000       0.00000000       0.50000000       1.00000000       2.00000000       1.00000000       1.04719755      -0.78849785       0.13668698      -0.00000000      -0.00000000      -0.00000000       0.32983655
2
Lattice="20.0 0.0 0.0 0.0 20.0 0.0 0.0 0.0 20.0" Properties=species:S:1:pos:R:3:quaternions:R:4:c_diameter\[1\]:R:1:c_diameter\[2\]:R:1:c_diameter\[3\]:R:1:angles:R:1:forces:R:3:torques:R:3 separation_distance=2.2444444444444445 energy=-0.3261545953533557 pbc="F F F"
X       10.00000000      10.00000000      10.00000000       1.00000000       0.00000000       0.00000000       0.00000000       1.00000000       2.00000000       1.00000000       0.00000000       1.37358505      -0.09448129       0.00000000      -0.00000000      -0.00000000      -0.02852259
X       12.24444444      10.00000000      10.00000000       0.76604444       0.00000000       0.00000000       0.64278761       1.00000000       2.00000000       1.00000000       1.39626340      -1.37358505       0.09448129      -0.00000000      -0.00000000      -0.00000000       0.23229559
2
Lattice="20.0 0.0 0.0 0.0 20.0 0.0 0.0 0.0 20.0" Properties=species:S:1:pos:R:3:quaternions:R:4:c_diameter\[1\]:R:1:c_diameter\[2\]:R:1:c_diameter\[3\]:R:1:angles:R:1:forces:R:3:torques:R:3 separation_distance=2.2444444444444445 energy=-0.3261545953533557 pbc="F F F"
X       10.00000000      10.00000000      10.00000000       1.00000000       0.00000000       0.00000000       0.00000000       1.00000000       2.00000000       1.00000000       0.00000000       1.37358505       0.09448129       0.00000000      -0.00000000      -0.00000000       0.02852259
X       12.24444444      10.00000000      10.00000000       0.64278761       0.00000000       0.00000000       0.76604444       1.00000000       2.00000000       1.00000000       1.74532925      -1.37358505      -0.09448129      -0.00000000      -0.00000000      -0.00000000      -0.23229559
2
Lattice="20.0 0.0 0.0 0.0 20.0 0.0 0.0 0.0 20.0" Properties=species:S:1:pos:R:3:quaternions:R:4:c_diameter\[1\]:R:1:c_diameter\[2\]:R:1:c_diameter\[3\]:R:1:angles:R:1:forces:R:3:torques:R:3 separation_distance=2.2444444444444445 energy=-0.21148422168317627 pbc="F F F"
X       10.00000000      10.00000000      10.00000000       1.00000000       0.00000000       0.00000000       0.00000000       1.00000000       2.00000000       1.00000000       0.00000000       0.78849785       0.13668698       0.00000000      -0.00000000      -0.00000000       0.02653423
X       12.24444444      10.00000000      10.00000000       0.50000000       0.00000000       0.00000000       0.86602540       1.00000000       2.00000000       1.00000000       2.09439510      -0.78849785      -0.13668698      -0.00000000      -0.00000000      -0.00000000      -0.32983655
2
Lattice="20.0 0.0 0.0 0.0 20.0 0.0 0.0 0.0 20.0" Properties=species:S:1:pos:R:3:quaternions:R:4:c_diameter\[1\]:R:1:c_diameter\[2\]:R:1:c_diameter\[3\]:R:1:angles:R:1:forces:R:3:torques:R:3 separation_distance=2.2444444444444445 energy=-0.12055415200420666 pbc="F F F"
X       10.00000000      10.00000000      10.00000000       1.00000000       0.00000000       0.00000000       0.00000000       1.00000000       2.00000000       1.00000000       0.00000000       0.38130458       0.08359334       0.00000000      -0.00000000      -0.00000000      -0.00113294
X       12.24444444      10.00000000      10.00000000       0.34202014       0.00000000       0.00000000       0.93969262       1.00000000       2.00000000       1.00000000       2.44346095      -0.38130458      -0.08359334      -0.00000000      -0.00000000      -0.00000000      -0.18706234
2
Lattice="20.0 0.0 0.0 0.0 20.0 0.0 0.0 0.0 20.0" Properties=species:S:1:pos:R:3:quaternions:R:4:c_diameter\[1\]:R:1:c_diameter\[2\]:R:1:c_diameter\[3\]:R:1:angles:R:1:forces:R:3:torques:R:3 separation_distance=2.2444444444444445 energy=-0.07587841761714989 pbc="F F F"
X       10.00000000      10.00000000      10.00000000       1.00000000       0.00000000       0.00000000       0.00000000       1.00000000       2.00000000       1.00000000       0.00000000       0.21096831       0.03810247       0.00000000      -0.00000000      -0.00000000      -0.00716865
X       12.24444444      10.00000000      10.00000000       0.17364818       0.00000000       0.00000000       0.98480775       1.00000000       2.00000000       1.00000000       2.79252680      -0.21096831      -0.03810247      -0.00000000      -0.00000000      -0.00000000      -0.07861839
2
Lattice="20.0 0.0 0.0 0.0 20.0 0.0 0.0 0.0 20.0" Properties=species:S:1:pos:R:3:quaternions:R:4:c_diameter\[1\]:R:1:c_diameter\[2\]:R:1:c_diameter\[3\]:R:1:angles:R:1:forces:R:3:torques:R:3 separation_distance=2.2444444444444445 energy=-0.06253667733015994 pbc="F F F"
X       10.00000000      10.00000000      10.00000000       1.00000000       0.00000000       0.00000000       0.00000000       1.00000000       2.00000000       1.00000000       0.00000000       0.16569676       0.00000000       0.00000000      -0.00000000      -0.00000000      -0.00000000
X       12.24444444      10.00000000      10.00000000       0.00000000       0.00000000       0.00000000       1.00000000       1.00000000       2.00000000       1.00000000       3.14159265      -0.16569676      -0.00000000      -0.00000000      -0.00000000      -0.00000000      -0.00000000
2
Lattice="20.0 0.0 0.0 0.0 20.0 0.0 0.0 0.0 20.0" Properties=species:S:1:pos:R:3:quaternions:R:4:c_diameter\[1\]:R:1:c_diameter\[2\]:R:1:c_diameter\[3\]:R:1:angles:R:1:forces:R:3:torques:R:3 separation_distance=2.2444444444444445 energy=-0.07587841761714992 pbc="F F F"
X       10.00000000      10.00000000      10.00000000       0.98480775       0.00000000       0.00000000       0.17364818       1.00000000       2.00000000       1.00000000       0.34906585       0.21096831      -0.03810247       0.00000000      -0.00000000      -0.00000000       0.07861839
X       12.24444444      10.00000000      10.00000000       1.00000000       0.00000000       0.00000000       0.00000000       1.00000000       2.00000000       1.00000000       0.00000000      -0.21096831       0.03810247      -0.00000000      -0.00000000      -0.00000000       0.00716865
2
Lattice="20.0 0.0 0.0 0.0 20.0 0.0 0.0 0.0 20.0" Properties=species:S:1:pos:R:3:quaternions:R:4:c_diameter\[1\]:R:1:c_diameter\[2\]:R:1:c_diameter\[3\]:R:1:angles:R:1:forces:R:3:torques:R:3 separation_distance=2.2444444444444445 energy=-0.09402614261242077 pbc="F F F"
X       10.00000000      10.00000000      10.00000000       0.98480775       0.00000000       0.00000000       0.17364818       1.00000000       2.00000000       1.00000000       0.34906585       0.25945205      -0.08642844       0.00000000      -0.00000000      -0.00000000       0.09720847
X       12.24444444      10.00000000      10.00000000       0.98480775       0.00000000       0.00000000       0.17364818       1.00000000       2.00000000       1.00000000       0.34906585      -0.25945205       0.08642844      -0.00000000      -0.00000000      -0.00000000       0.09720847
2
Lattice="20.0 0.0 0.0 0.0 20.0 0.0 0.0 0.0 20.0" Properties=species:S:1:pos:R:3:quaternions:R:4:c_diameter\[1\]:R:1:c_diameter\[2\]:R:1:c_diameter\[3\]:R:1:angles:R:1:forces:R:3:torques:R:3 separation_distance=2.2444444444444445 energy=-0.14572300291022336 pbc="F F F"
X       10.00000000      10.00000000      10.00000000       0.98480775       0.00000000       0.00000000       0.17364818       1.00000000       2.00000000       1.00000000       0.34906585       0.44031031      -0.15650701       0.00000000      -0.00000000      -0.00000000       0.14518872
X       12.24444444      10.00000000      10.00000000       0.93969262       0.00000000       0.00000000       0.34202014       1.00000000       2.00000000       1.00000000       0.69813170      -0.44031031       0.15650701      -0.00000000      -0.00000000      -0.00000000       0.20756756
2
Lattice="20.0 0.0 0.0 0.0 20.0 0.0 0.0 0.0 20.0" Properties=species:S:1:pos:R:3:quaternions:R:4:c_diameter\[1\]:R:1:c_diameter\[2\]:R:1:c_diameter\[3\]:R:1:angles:R:1:forces:R:3:torques:R:3 separation_distance=2.2444444444444445 energy=-0.2456410077794145 pbc="F F F"
X       10.00000000      10.00000000      10.00000000       0.98480775       0.00000000       0.00000000       0.17364818       1.00000000       2.00000000       1.00000000       0.34906585       0.87544062      -0.26784778       0.00000000      -0.00000000      -0.00000000       0.23081759
X       12.24444444      10.00000000      10.00000000       0.86602540       0.00000000       0.00000000       0.50000000       1.00000000       2.00000000       1.00000000       1.04719755      -0.87544062       0.26784778      -0.00000000      -0.00000000      -0.00000000       0.37041133
2
Lattice="20.0 0.0 0.0 0.0 20.0 0.0 0.0 0.0 20.0" Properties=species:S:1:pos:R:3:quaternions:R:4:c_diameter\[1\]:R:1:c_diameter\[2\]:R:1:c_diameter\[3\]:R:1:angles:R:1:forces:R:3:torques:R:3 separation_distance=2.2444444444444445 energy=-0.3858483599918927 pbc="F F F"
X       10.00000000      10.00000000      10.00000000       0.98480775       0.00000000       0.00000000       0.17364818       1.00000000       2.00000000       1.00000000       0.34906585       1.61312467      -0.32883410       0.00000000      -0.00000000      -0.00000000       0.39841286
X       12.24444444      10.00000000      10.00000000       0.76604444       0.00000000       0.00000000       0.64278761       1.00000000       2.00000000       1.00000000       1.39626340      -1.61312467       0.32883410      -0.00000000      -0.00000000      -0.00000000       0.33373190
2
Lattice="20.0 0.0 0.0 0.0 20.0 0.0 0.0 0.0 20.0" Properties=species:S:1:pos:R:3:quaternions:R:4:c_diameter\[1\]:R:1:c_diameter\[2\]:R:1:c_diameter\[3\]:R:1:angles:R:1:forces:R:3:torques:R:3 separation_distance=2.2444444444444445 energy=-0.410516664944839 pbc="F F F"
X       10.00000000      10.00000000      10.00000000       0.98480775       0.00000000       0.00000000       0.17364818       1.00000000       2.00000000       1.00000000       0.34906585       1.80697240      -0.11218095       0.00000000      -0.00000000      -0.00000000       0.50329431
X       12.24444444      10.00000000      10.00000000       0.64278761       0.00000000       0.00000000       0.76604444       1.00000000       2.00000000       1.00000000       1.74532925      -1.80697240       0.11218095      -0.00000000      -0.00000000      -0.00000000      -0.23624755
2
Lattice="20.0 0.0 0.0 0.0 20.0 0.0 0.0 0.0 20.0" Properties=species:S:1:pos:R:3:quaternions:R:4:c_diameter\[1\]:R:1:c_diameter\[2\]:R:1:c_diameter\[3\]:R:1:angles:R:1:forces:R:3:torques:R:3 separation_distance=2.2444444444444445 energy=-0.2695232648412143 pbc="F F F"
X       10.00000000      10.00000000      10.00000000       0.98480775       0.00000000       0.00000000       0.17364818       1.00000000       2.00000000       1.00000000       0.34906585       1.09518499       0.04856339       0.00000000      -0.00000000      -0.00000000       0.33781891
X       12.24444444      10.00000000      10.00000000       0.50000000       0.00000000       0.00000000       0.86602540       1.00000000       2.00000000       1.00000000       2.09439510      -1.09518499      -0.04856339      -0.00000000      -0.00000000      -0.00000000      -0.43729979
2
Lattice="20.0 0.0 0.0 0.0 20.0 0.0 0.0 0.0 20.0" Properties=species:S:1:pos:R:3:quaternions:R:4:c_diameter\[1\]:R:1:c_diameter\[2\]:R:1:c_diameter\[3\]:R:1:angles:R:1:forces:R:3:torques:R:3 separation_distance=2.2444444444444445 energy=-0.14724194281021144 pbc="F F F"
X       10.00000000      10.00000000      10.00000000       0.98480775       0.00000000       0.00000000       0.17364818       1.00000000       2.00000000       1.00000000       0.34906585       0.51654861       0.03668342       0.00000000      -0.00000000      -0.00000000       0.16694170
X       12.24444444      10.00000000      10.00000000       0.34202014       0.00000000       0.00000000       0.93969262       1.00000000       2.00000000       1.00000000       2.44346095      -0.51654861      -0.03668342      -0.00000000      -0.00000000      -0.00000000      -0.24862842
2
Lattice="20.0 0.0 0.0 0.0 20.0 0.0 0.0 0.0 20.0" Properties=species:S:1:pos:R:3:quaternions:R:4:c_diameter\[1\]:R:1:c_diameter\[2\]:R:1:c_diameter\[3\]:R:1:angles:R:1:forces:R:3:torques:R:3 separation_distance=2.2444444444444445 energy=-0.09009619105869682 pbc="F F F"
X       10.00000000      10.00000000      10.00000000       0.98480775       0.00000000       0.00000000       0.17364818       1.00000000       2.00000000       1.00000000       0.34906585       0.27429291       0.00000000       0.00000000      -0.00000000      -0.00000000       0.09396466
X       12.24444444      10.00000000      10.00000000       0.17364818       0.00000000       0.00000000       0.98480775       1.00000000       2.00000000       1.00000000       2.79252680      -0.27429291      -0.00000000      -0.00000000      -0.00000000      -0.00000000      -0.09396466
2
Lattice="20.0 0.0 0.0 0.0 20.0 0.0 0.0 0.0 20.0" Properties=species:S:1:pos:R:3:quaternions:R:4:c_diameter\[1\]:R:1:c_diameter\[2\]:R:1:c_diameter\[3\]:R:1:angles:R:1:forces:R:3:torques:R:3 separation_distance=2.2444444444444445 energy=-0.07587841761714997 pbc="F F F"
X       10.00000000      10.00000000      10.00000000       0.98480775       0.00000000       0.00000000       0.17364818       1.00000000       2.00000000       1.00000000       0.34906585       0.21096831      -0.03810247       0.00000000      -0.00000000      -0.00000000       0.07861839
X       12.24444444      10.00000000      10.00000000       0.00000000       0.00000000       0.00000000       1.00000000       1.00000000       2.00000000       1.00000000       3.14159265      -0.21096831       0.03810247      -0.00000000      -0.00000000      -0.00000000       0.00716865
2
Lattice="20.0 0.0 0.0 0.0 20.0 0.0 0.0 0.0 20.0" Properties=species:S:1:pos:R:3:quaternions:R:4:c_diameter\[1\]:R:1:c_diameter\[2\]:R:1:c_diameter\[3\]:R:1:angles:R:1:forces:R:3:torques:R:3 separation_distance=2.2444444444444445 energy=-0.12055415200420654 pbc="F F F"
X       10.00000000      10.00000000      10.00000000       0.93969262       0.00000000       0.00000000       0.34202014       1.00000000       2.00000000       1.00000000       0.69813170       0.38130458      -0.08359334       0.00000000      -0.00000000      -0.00000000       0.18706234
X       12.24444444      10.00000000      10.00000000       1.00000000       0.00000000       0.00000000       0.00000000       1.00000000       2.00000000       1.00000000       0.00000000      -0.38130458       0.08359334      -0.00000000      -0.00000000      -0.00000000       0.00113294
2
Lattice="20.0 0.0 0.0 0.0 20.0 0.0 0.0 0.0 20.0" Properties=species:S:1:pos:R:3:quaternions:R:4:c_diameter\[1\]:R:1:c_diameter\[2\]:R:1:c_diameter\[3\]:R:1:angles:R:1:forces:R:3:torques:R:3 separation_distance=2.2444444444444445 energy=-0.14572300291022336 pbc="F F F"
X       10.00000000      10.00000000      10.00000000       0.93969262       0.00000000       0.00000000       0.34202014       1.00000000       2.00000000       1.00000000       0.69813170       0.44031031      -0.15650701       0.00000000      -0.00000000      -0.00000000       0.20756756
X       12.24444444      10.00000000      10.00000000       0.98480775       0.00000000       0.00000000       0.17364818       1.00000000       2.00000000       1.00000000       0.34906585      -0.44031031       0.15650701      -0.00000000      -0.00000000      -0.00000000       0.14518872
2
Lattice="20.0 0.0 0.0 0.0 20.0 0.0 0.0 0.0 20.0" Properties=species:S:1:pos:R:3:quaternions:R:4:c_diameter\[1\]:R:1:c_diameter\[2\]:R:1:c_diameter\[3\]:R:1:angles:R:1:forces:R:3:torques:R:3 separation_distance=2.2444444444444445 energy=-0.2258986314423122 pbc="F F F"
X       10.00000000      10.00000000      10.00000000       0.93969262       0.00000000       0.00000000       0.34202014       1.00000000       2.00000000       1.00000000       0.69813170       0.71218070      -0.29084950       0.00000000      -0.00000000      -0.00000000       0.32808249
X       12.24444444      10.00000000      10.00000000       0.93969262       0.00000000       0.00000000       0.34202014       1.00000000       2.00000000       1.00000000       0.69813170      -0.71218070       0.29084950      -0.00000000      -0.00000000      -0.00000000       0.32808249
2
Lattice="20.0 0.0 0.0 0.0 20.0 0.0 0.0 0.0 20.0" Properties=species:S:1:pos:R:3:quaternions:R:4:c_diameter\[1\]:R:1:c_diameter\[2\]:R:1:c_diameter\[3\]:R:1:angles:R:1:forces:R:3:torques:R:3 separation_distance=2.2444444444444445 energy=-0.38741559614633464 pbc="F F F"
X       10.00000000      10.00000000      10.00000000       0.93969262       0.00000000       0.00000000       0.34202014       1.00000000       2.00000000       1.00000000       0.69813170       1.40765280      -0.55556934       0.00000000      -0.00000000      -0.00000000       0.63048820
X       12.24444444      10.00000000      10.00000000       0.86602540       0.00000000       0.00000000       0.50000000       1.00000000       2.00000000       1.00000000       1.04719755      -1.40765280       0.55556934      -0.00000000      -0.00000000      -0.00000000       0.62153513
2
Lattice="20.0 0.0 0.0 0.0 20.0 0.0 0.0 0.0 20.0" Properties=species:S:1:pos:R:3:quaternions:R:4:c_diameter\[1\]:R:1:c_diameter\[2\]:R:1:c_diameter\[3\]:R:1:angles:R:1:forces:R:3:torques:R:3 separation_distance=2.2444444444444445 energy=-0.6453888621009389 pbc="F F F"
X       10.00000000      10.00000000      10.00000000       0.93969262       0.00000000       0.00000000       0.34202014       1.00000000       2.00000000       1.00000000       0.69813170       2.80780968      -0.86533593       0.00000000      -0.00000000      -0.00000000       1.23074770
X       12.24444444      10.00000000      10.00000000       0.76604444       0.00000000       0.00000000       0.64278761       1.00000000       2.00000000       1.00000000       1.39626340      -2.80780968       0.86533593      -0.00000000      -0.00000000      -0.00000000       0.70598120
2
Lattice="20.0 0.0 0.0 0.0 20.0 0.0 0.0 0.0 20.0" Properties=species:S:1:pos:R:3:quaternions:R:4:c_diameter\[1\]:R:1:c_diameter\[2\]:R:1:c_diameter\[3\]:R:1:angles:R:1:forces:R:3:torques:R:3 separation_distance=2.2444444444444445 energy=-0.7367050635880099 pbc="F F F"
X       10.00000000      10.00000000      10.00000000       0.93969262       0.00000000       0.00000000       0.34202014       1.00000000       2.00000000       1.00000000       0.69813170       3.50584668      -0.52562084       0.00000000      -0.00000000      -0.00000000       1.55848852
X       12.24444444      10.00000000      10.00000000       0.64278761       0.00000000       0.00000000       0.76604444       1.00000000       2.00000000       1.00000000       1.74532925      -3.50584668       0.52562084      -0.00000000      -0.00000000      -0.00000000      -0.34383467
2
Lattice="20.0 0.0 0.0 0.0 20.0 0.0 0.0 0.0 20.0" Properties=species:S:1:pos:R:3:quaternions:R:4:c_diameter\[1\]:R:1:c_diameter\[2\]:R:1:c_diameter\[3\]:R:1:angles:R:1:forces:R:3:torques:R:3 separation_distance=2.2444444444444445 energy=-0.4817256439538179 pbc="F F F"
X       10.00000000      10.00000000      10.00000000       0.93969262       0.00000000       0.00000000       0.34202014       1.00000000       2.00000000       1.00000000       0.69813170       2.18719119      -0.05492553       0.00000000      -0.00000000      -0.00000000       0.97573243
X       12.24444444      10.00000000      10.00000000       0.50000000       0.00000000       0.00000000       0.86602540       1.00000000       2.00000000       1.00000000       2.09439510      -2.18719119       0.05492553      -0.00000000      -0.00000000      -0.00000000      -0.83178331
2
Lattice="20.0 0.0 0.0 0.0 20.0 0.0 0.0 0.0 20.0" Properties=species:S:1:pos:R:3:quaternions:R:4:c_diameter\[1\]:R:1:c_diameter\[2\]:R:1:c_diameter\[3\]:R:1:angles:R:1:forces:R:3:torques:R:3 separation_distance=2.2444444444444445 energy=-0.250545633991345 pbc="F F F"
X       10.00000000      10.00000000      10.00000000       0.93969262       0.00000000       0.00000000       0.34202014       1.00000000       2.00000000       1.00000000       0.69813170       1.00451593       0.00000000       0.00000000      -0.00000000      -0.00000000       0.45967887
X       12.24444444      10.00000000      10.00000000       0.34202014       0.00000000       0.00000000       0.93969262       1.00000000       2.00000000       1.00000000       2.44346095      -1.00451593      -0.00000000      -0.00000000      -0.00000000      -0.00000000      -0.45967887
2
Lattice="20.0 0.0 0.0 0.0 20.0 0.0 0.0 0.0 20.0" Properties=species:S:1:pos:R:3:quaternions:R:4:c_diameter\[1\]:R:1:c_diameter\[2\]:R:1:c_diameter\[3\]:R:1:angles:R:1:forces:R:3:torques:R:3 separation_distance=2.2444444444444445 energy=-0.14724194281021138 pbc="F F F"
X       10.00000000      10.00000000      10.00000000       0.93969262       0.00000000       0.00000000       0.34202014       1.00000000       2.00000000       1.00000000       0.69813170       0.51654861      -0.03668342       0.00000000      -0.00000000      -0.00000000       0.24862842
X       12.24444444      10.00000000      10.00000000       0.17364818       0.00000000       0.00000000       0.98480775       1.00000000       2.00000000       1.00000000       2.79252680      -0.51654861       0.03668342      -0.00000000      -0.00000000      -0.00000000      -0.16694170
2
Lattice="20.0 0.0 0.0 0.0 20.0 0.0 0.0 0.0 20.0" Properties=species:S:1:pos:R:3:quaternions:R:4:c_diameter\[1\]:R:1:c_diameter\[2\]:R:1:c_diameter\[3\]:R:1:angles:R:1:forces:R:3:torques:R:3 separation_distance=2.2444444444444445 energy=-0.12055415200420662 pbc="F F F"
X       10.00000000      10.00000000      10.00000000       0.93969262       0.00000000       0.00000000       0.34202014       1.00000000       2.00000000       1.00000000       0.69813170       0.38130458      -0.08359334       0.00000000      -0.00000000      -0.00000000       0.18706234
X       12.24444444      10.00000000      10.00000000       0.00000000       0.00000000       0.00000000       1.00000000       1.00000000       2.00000000       1.00000000       3.14159265      -0.38130458       0.08359334      -0.00000000      -0.00000000      -0.00000000       0.00113294
2
Lattice="20.0 0.0 0.0 0.0 20.0 0.0 0.0 0.0 20.0" Properties=species:S:1:pos:R:3:quaternions:R:4:c_diameter\[1\]:R:1:c_diameter\[2\]:R:1:c_diameter\[3\]:R:1:angles:R:1:forces:R:3:torques:R:3 separation_distance=2.2444444444444445 energy=-0.21148422168317646 pbc="F F F"
X       10.00000000      10.00000000      10.00000000       0.86602540       0.00000000       0.00000000       0.50000000       1.00000000       2.00000000       1.00000000       1.04719755       0.78849785      -0.13668698       0.00000000      -0.00000000      -0.00000000       0.32983655
X       12.24444444      10.00000000      10.00000000       1.00000000       0.00000000       0.00000000       0.00000000       1.00000000       2.00000000       1.00000000       0.00000000      -0.78849785       0.13668698      -0.00000000      -0.00000000      -0.00000000      -0.02653423
2
Lattice="20.0 0.0 0.0 0.0 20.0 0.0 0.0 0.0 20.0" Properties=species:S:1:pos:R:3:quaternions:R:4:c_diameter\[1\]:R:1:c_diameter\[2\]:R:1:c_diameter\[3\]:R:1:angles:R:1:forces:R:3:torques:R:3 separation_distance=2.2444444444444445 energy=-0.2456410077794145 pbc="F F F"
X       10.00000000      10.00000000      10.00000000       0.86602540       0.00000000       0.00000000       0.50000000       1.00000000       2.00000000       1.00000000       1.04719755       0.87544062      -0.26784778       0.00000000      -0.00000000      -0.00000000       0.37041133
X       12.24444444      10.00000000      10.00000000       0.98480775       0.00000000       0.00000000       0.17364818       1.00000000       2.00000000       1.00000000       0.34906585      -0.87544062       0.26784778      -0.00000000      -0.00000000      -0.00000000       0.23081759
2
Lattice="20.0 0.0 0.0 0.0 20.0 0.0 0.0 0.0 20.0" Properties=species:S:1:pos:R:3:quaternions:R:4:c_diameter\[1\]:R:1:c_diameter\[2\]:R:1:c_diameter\[3\]:R:1:angles:R:1:forces:R:3:torques:R:3 separation_distance=2.2444444444444445 energy=-0.38741559614633464 pbc="F F F"
X       10.00000000      10.00000000      10.00000000       0.86602540       0.00000000       0.00000000       0.50000000       1.00000000       2.00000000       1.00000000       1.04719755       1.40765280      -0.55556934       0.00000000      -0.00000000      -0.00000000       0.62153513
X       12.24444444      10.00000000      10.00000000       0.93969262       0.00000000       0.00000000       0.34202014       1.00000000       2.00000000       1.00000000       0.69813170      -1.40765280       0.55556934      -0.00000000      -0.00000000      -0.00000000       0.63048820
2
Lattice="20.0 0.0 0.0 0.0 20.0 0.0 0.0 0.0 20.0" Properties=species:S:1:pos:R:3:quaternions:R:4:c_diameter\[1\]:R:1:c_diameter\[2\]:R:1:c_diameter\[3\]:R:1:angles:R:1:forces:R:3:torques:R:3 separation_distance=2.2444444444444445 energy=-0.7287094774703651 pbc="F F F"
X       10.00000000      10.00000000      10.00000000       0.86602540       0.00000000       0.00000000       0.50000000       1.00000000       2.00000000       1.00000000       1.04719755       2.95764550      -1.26385543       0.00000000      -0.00000000      -0.00000000       1.42237158
X       12.24444444      10.00000000      10.00000000       0.86602540       0.00000000       0.00000000       0.50000000       1.00000000       2.00000000       1.00000000       1.04719755      -2.95764550       1.26385543      -0.00000000      -0.00000000      -0.00000000       1.42237158
2
Lattice="20.0 0.0 0.0 0.0 20.0 0.0 0.0 0.0 20.0" Properties=species:S:1:pos:R:3:quaternions:R:4:c_diameter\[1\]:R:1:c_diameter\[2\]:R:1:c_diameter\[3\]:R:1:angles:R:1:forces:R:3:torques:R:3 separation_distance=2.2444444444444445 energy=-1.3779952626399359 pbc="F F F"
X       10.00000000      10.00000000      10.00000000       0.86602540       0.00000000       0.00000000       0.50000000       1.00000000       2.00000000       1.00000000       1.04719755       6.62431133      -2.35225211       0.00000000      -0.00000000      -0.00000000       3.28079296
X       12.24444444      10.00000000      10.00000000       0.76604444       0.00000000       0.00000000       0.64278761       1.00000000       2.00000000       1.00000000       1.39626340      -6.62431133       2.35225211      -0.00000000      -0.00000000      -0.00000000       1.94401115
2
Lattice="20.0 0.0 0.0 0.0 20.0 0.0 0.0 0.0 20.0" Properties=species:S:1:pos:R:3:quaternions:R:4:c_diameter\[1\]:R:1:c_diameter\[2\]:R:1:c_diameter\[3\]:R:1:angles:R:1:forces:R:3:torques:R:3 separation_distance=2.2444444444444445 energy=-1.0056047444280434 pbc="F F F"
X       10.00000000      10.00000000      10.00000000       0.86602540       0.00000000       0.00000000       0.50000000       1.00000000       2.00000000       1.00000000       1.04719755       5.07878943       0.00000000       0.00000000      -0.00000000      -0.00000000       2.01010496
X       12.24444444      10.00000000      10.00000000       0.50000000       0.00000000       0.00000000       0.86602540       1.00000000       2.00000000       1.00000000       2.09439510      -5.07878943      -0.00000000      -0.00000000      -0.00000000      -0.00000000      -2.01010496
2
Lattice="20.0 0.0 0.0 0.0 20.0 0.0 0.0 0.0 20.0" Properties=species:S:1:pos:R:3:quaternions:R:4:c_diameter\[1\]:R:1:c_diameter\[2\]:R:1:c_diameter\[3\]:R:1:angles:R:1:forces:R:3:torques:R:3 separation_distance=2.2444444444444445 energy=-0.4817256439538178 pbc="F F F"
X       10.00000000      10.00000000      10.00000000       0.86602540       0.00000000       0.00000000       0.50000000       1.00000000       2.00000000       1.00000000       1.04719755       2.18719119       0.05492553       0.00000000      -0.00000000      -0.00000000       0.83178331
X       12.24444444      10.00000000      10.00000000       0.34202014       0.00000000       0.00000000       0.93969262       1.00000000       2.00000000       1.00000000       2.44346095      -2.18719119      -0.05492553      -0.00000000      -0.00000000      -0.00000000      -0.97573243
2
Lattice="20.0 0.0 0.0 0.0 20.0 0.0 0.0 0.0 20.0" Properties=species:S:1:pos:R:3:quaternions:R:4:c_diameter\[1\]:R:1:c_diameter\[2\]:R:1:c_diameter\[3\]:R:1:angles:R:1:forces:R:3:torques:R:3 separation_distance=2.2444444444444445 energy=-0.26952326484121436 pbc="F F F"
X       10.00000000      10.00000000      10.00000000       0.86602540       0.00000000       0.00000000       0.50000000       1.00000000       2.00000000       1.00000000       1.04719755       1.09518499      -0.04856339       0.00000000      -0.00000000      -0.00000000       0.43729979
X       12.24444444      10.00000000      10.00000000       0.17364818       0.00000000       0.00000000       0.98480775       1.00000000       2.00000000       1.00000000       2.79252680      -1.09518499       0.04856339      -0.00000000      -0.00000000      -0.00000000      -0.33781891
2
Lattice="20.0 0.0 0.0 0.0 20.0 0.0 0.0 0.0 20.0" Properties=species:S:1:pos:R:3:quaternions:R:4:c_diameter\[1\]:R:1:c_diameter\[2\]:R:1:c_diameter\[3\]:R:1:angles:R:1:forces:R:3:torques:R:3 separation_distance=2.2444444444444445 energy=-0.2114842216831762 pbc="F F F"
X       10.00000000      10.00000000      10.00000000       0.86602540       0.00000000       0.00000000       0.50000000       1.00000000       2.00000000       1.00000000       1.04719755       0.78849785      -0.13668698       0.00000000      -0.00000000      -0.00000000       0.32983655
X       12.24444444      10.00000000      10.00000000       0.00000000       0.00000000       0.00000000       1.00000000       1.00000000       2.00000000       1.00000000       3.14159265      -0.78849785       0.13668698      -0.00000000      -0.00000000      -0.00000000      -0.02653423
2
Lattice="20.0 0.0 0.0 0.0 20.0 0.0 0.0 0.0 20.0" Properties=species:S:1:pos:R:3:quaternions:R:4:c_diameter\[1\]:R:1:c_diameter\[2\]:R:1:c_diameter\[3\]:R:1:angles:R:1:forces:R:3:torques:R:3 separation_distance=2.2444444444444445 energy=-0.3261545953533557 pbc="F F F"
X       10.00000000      10.00000000      10.00000000       0.76604444       0.00000000       0.00000000       0.64278761       1.00000000       2.00000000       1.00000000       1.39626340       1.37358505      -0.09448129       0.00000000      -0.00000000      -0.00000000       0.23229559
X       12.24444444      10.00000000      10.00000000       1.00000000       0.00000000       0.00000000       0.00000000       1.00000000       2.00000000       1.00000000       0.00000000      -1.37358505       0.09448129      -0.00000000      -0.00000000      -0.00000000      -0.02852259
2
Lattice="20.0 0.0 0.0 0.0 20.0 0.0 0.0 0.0 20.0" Properties=species:S:1:pos:R:3:quaternions:R:4:c_diameter\[1\]:R:1:c_diameter\[2\]:R:1:c_diameter\[3\]:R:1:angles:R:1:forces:R:3:torques:R:3 separation_distance=2.2444444444444445 energy=-0.3858483599918927 pbc="F F F"
X       10.00000000      10.00000000      10.00000000       0.76604444       0.00000000       0.00000000       0.64278761       1.00000000       2.00000000       1.00000000       1.39626340       1.61312467      -0.32883410       0.00000000      -0.00000000      -0.00000000       0.33373190
X       12.24444444      10.00000000      10.00000000       0.98480775       0.00000000       0.00000000       0.17364818       1.00000000       2.00000000       1.00000000       0.34906585      -1.61312467       0.32883410      -0.00000000      -0.00000000      -0.00000000       0.39841286
2
Lattice="20.0 0.0 0.0 0.0 20.0 0.0 0.0 0.0 20.0" Properties=species:S:1:pos:R:3:quaternions:R:4:c_diameter\[1\]:R:1:c_diameter\[2\]:R:1:c_diameter\[3\]:R:1:angles:R:1:forces:R:3:torques:R:3 separation_distance=2.2444444444444445 energy=-0.6453888621009389 pbc="F F F"
X       10.00000000      10.00000000      10.00000000       0.76604444       0.00000000       0.00000000       0.64278761       1.00000000       2.00000000       1.00000000       1.39626340       2.80780968      -0.86533593       0.00000000      -0.00000000      -0.00000000       0.70598120
X       12.24444444      10.00000000      10.00000000       0.93969262       0.00000000       0.00000000       0.34202014       1.00000000       2.00000000       1.00000000       0.69813170      -2.80780968       0.86533593      -0.00000000      -0.00000000      -0.00000000       1.23074770
2
Lattice="20.0 0.0 0.0 0.0 20.0 0.0 0.0 0.0 20.0" Properties=species:S:1:pos:R:3:quaternions:R:4:c_diameter\[1\]:R:1:c_diameter\[2\]:R:1:c_diameter\[3\]:R:1:angles:R:1:forces:R:3:torques:R:3 separation_distance=2.2444444444444445 energy=-1.3779952626399359 pbc="F F F"
X       10.00000000      10.00000000      10.00000000       0.76604444       0.00000000       0.00000000       0.64278761       1.00000000       2.00000000       1.00000000       1.39626340       6.62431133      -2.35225211       0.00000000      -0.00000000      -0.00000000       1.94401115
X       12.24444444      10.00000000      10.00000000       0.86602540       0.00000000       0.00000000       0.50000000       1.00000000       2.00000000       1.00000000       1.04719755      -6.62431133       2.35225211      -0.00000000      -0.00000000      -0.00000000       3.28079296
2
Lattice="20.0 0.0 0.0 0.0 20.0 0.0 0.0 0.0 20.0" Properties=species:S:1:pos:R:3:quaternions:R:4:c_diameter\[1\]:R:1:c_diameter\[2\]:R:1:c_diameter\[3\]:R:1:angles:R:1:forces:R:3:torques:R:3 separation_distance=2.2444444444444445 energy=-0.7367050635880101 pbc="F F F"
X       10.00000000      10.00000000      10.00000000       0.76604444       0.00000000       0.00000000       0.64278761       1.00000000       2.00000000       1.00000000       1.39626340       3.50584668       0.52562084       0.00000000      -0.00000000      -0.00000000       0.34383467
X       12.24444444      10.00000000      10.00000000       0.34202014       0.00000000       0.00000000       0.93969262       1.00000000       2.00000000       1.00000000       2.44346095      -3.50584668      -0.52562084      -0.00000000      -0.00000000      -0.00000000      -1.55848852
2
Lattice="20.0 0.0 0.0 0.0 20.0 0.0 0.0 0.0 20.0" Properties=species:S:1:pos:R:3:quaternions:R:4:c_diameter\[1\]:R:1:c_diameter\[2\]:R:1:c_diameter\[3\]:R:1:angles:R:1:forces:R:3:torques:R:3 separation_distance=2.2444444444444445 energy=-0.4105166649448391 pbc="F F F"
X       10.00000000      10.00000000      10.00000000       0.76604444       0.00000000       0.00000000       0.64278761       1.00000000       2.00000000       1.00000000       1.39626340       1.80697240       0.11218095       0.00000000      -0.00000000      -0.00000000       0.23624755
X       12.24444444      10.00000000      10.00000000       0.17364818       0.00000000       0.00000000       0.98480775       1.00000000       2.00000000       1.00000000       2.79252680      -1.80697240      -0.11218095      -0.00000000      -0.00000000      -0.00000000      -0.50329431
2
Lattice="20.0 0.0 0.0 0.0 20.0 0.0 0.0 0.0 20.0" Properties=species:S:1:pos:R:3:quaternions:R:4:c_diameter\[1\]:R:1:c_diameter\[2\]:R:1:c_diameter\[3\]:R:1:angles:R:1:forces:R:3:torques:R:3 separation_distance=2.2444444444444445 energy=-0.32615459535335556 pbc="F F F"
X       10.00000000      10.00000000      10.00000000       0.76604444       0.00000000       0.00000000       0.64278761       1.00000000       2.00000000       1.00000000       1.39626340       1.37358505      -0.09448129       0.00000000      -0.00000000      -0.00000000       0.23229559
X       12.24444444      10.00000000      10.00000000       0.00000000       0.00000000       0.00000000       1.00000000       1.00000000       2.00000000       1.00000000       3.14159265      -1.37358505       0.09448129      -0.00000000      -0.00000000      -0.00000000      -0.02852259
2
Lattice="20.0 0.0 0.0 0.0 20.0 0.0 0.0 0.0 20.0" Properties=species:S:1:pos:R:3:quaternions:R:4:c_diameter\[1\]:R:1:c_diameter\[2\]:R:1:c_diameter\[3\]:R:1:angles:R:1:forces:R:3:torques:R:3 separation_distance=2.2444444444444445 energy=-0.3261545953533557 pbc="F F F"
X       10.00000000      10.00000000      10.00000000       0.64278761       0.00000000       0.00000000       0.76604444       1.00000000       2.00000000       1.00000000       1.74532925       1.37358505       0.09448129       0.00000000      -0.00000000      -0.00000000      -0.23229559
X       12.24444444      10.00000000      10.00000000       1.00000000       0.00000000       0.00000000       0.00000000       1.00000000       2.00000000       1.00000000       0.00000000      -1.37358505      -0.09448129      -0.00000000      -0.00000000      -0.00000000       0.02852259
2
Lattice="20.0 0.0 0.0 0.0 20.0 0.0 0.0 0.0 20.0" Properties=species:S:1:pos:R:3:quaternions:R:4:c_diameter\[1\]:R:1:c_diameter\[2\]:R:1:c_diameter\[3\]:R:1:angles:R:1:forces:R:3:torques:R:3 separation_distance=2.2444444444444445 energy=-0.410516664944839 pbc="F F F"
X       10.00000000      10.00000000      10.00000000       0.64278761       0.00000000       0.00000000       0.76604444       1.00000000       2.00000000       1.00000000       1.74532925       1.80697240      -0.11218095       0.00000000      -0.00000000      -0.00000000      -0.23624755
X       12.24444444      10.00000000      10.00000000       0.98480775       0.00000000       0.00000000       0.17364818       1.00000000       2.00000000       1.00000000       0.34906585      -1.80697240       0.11218095      -0.00000000      -0.00000000      -0.00000000       0.50329431
2
Lattice="20.0 0.0 0.0 0.0 20.0 0.0 0.0 0.0 20.0" Properties=species:S:1:pos:R:3:quaternions:R:4:c_diameter\[1\]:R:1:c_diameter\[2\]:R:1:c_diameter\[3\]:R:1:angles:R:1:forces:R:3:torques:R:3 separation_distance=2.2444444444444445 energy=-0.7367050635880099 pbc="F F F"
X       10.00000000      10.00000000      10.00000000       0.64278761       0.00000000       0.00000000       0.76604444       1.00000000       2.00000000       1.00000000       1.74532925       3.50584668      -0.52562084       0.00000000      -0.00000000      -0.00000000      -0.34383467
X       12.24444444      10.00000000      10.00000000       0.93969262       0.00000000       0.00000000       0.34202014       1.00000000       2.00000000       1.00000000       0.69813170      -3.50584668       0.52562084      -0.00000000      -0.00000000      -0.00000000       1.55848852
2
Lattice="20.0 0.0 0.0 0.0 20.0 0.0 0.0 0.0 20.0" Properties=species:S:1:pos:R:3:quaternions:R:4:c_diameter\[1\]:R:1:c_diameter\[2\]:R:1:c_diameter\[3\]:R:1:angles:R:1:forces:R:3:torques:R:3 separation_distance=2.2444444444444445 energy=-1.3779952626399363 pbc="F F F"
X       10.00000000      10.00000000      10.00000000       0.64278761       0.00000000       0.00000000       0.76604444       1.00000000       2.00000000       1.00000000       1.74532925       6.62431133       2.35225211       0.00000000      -0.00000000      -0.00000000      -1.94401115
X       12.24444444      10.00000000      10.00000000       0.50000000       0.00000000       0.00000000       0.86602540       1.00000000       2.00000000       1.00000000       2.09439510      -6.62431133      -2.35225211      -0.00000000      -0.00000000      -0.00000000      -3.28079296
2
Lattice="20.0 0.0 0.0 0.0 20.0 0.0 0.0 0.0 20.0" Properties=species:S:1:pos:R:3:quaternions:R:4:c_diameter\[1\]:R:1:c_diameter\[2\]:R:1:c_diameter\[3\]:R:1:angles:R:1:forces:R:3:torques:R:3 separation_distance=2.2444444444444445 energy=-0.6453888621009398 pbc="F F F"
X       10.00000000      10.00000000      10.00000000       0.64278761       0.00000000       0.00000000       0.76604444       1.00000000       2.00000000       1.00000000       1.74532925       2.80780968       0.86533593       0.00000000      -0.00000000      -0.00000000      -0.70598120
X       12.24444444      10.00000000      10.00000000       0.34202014       0.00000000       0.00000000       0.93969262       1.00000000       2.00000000       1.00000000       2.44346095      -2.80780968      -0.86533593      -0.00000000      -0.00000000      -0.00000000      -1.23074770
2
Lattice="20.0 0.0 0.0 0.0 20.0 0.0 0.0 0.0 20.0" Properties=species:S:1:pos:R:3:quaternions:R:4:c_diameter\[1\]:R:1:c_diameter\[2\]:R:1:c_diameter\[3\]:R:1:angles:R:1:forces:R:3:torques:R:3 separation_distance=2.2444444444444445 energy=-0.38584835999189304 pbc="F F F"
X       10.00000000      10.00000000      10.00000000       0.64278761       0.00000000       0.00000000       0.76604444       1.00000000       2.00000000       1.00000000       1.74532925       1.61312467       0.32883410       0.00000000      -0.00000000      -0.00000000      -0.33373190
X       12.24444444      10.00000000      10.00000000       0.17364818       0.00000000       0.00000000       0.98480775       1.00000000       2.00000000       1.00000000       2.79252680      -1.61312467      -0.32883410      -0.00000000      -0.00000000      -0.00000000      -0.39841286
2
Lattice="20.0 0.0 0.0 0.0 20.0 0.0 0.0 0.0 20.0" Properties=species:S:1:pos:R:3:quaternions:R:4:c_diameter\[1\]:R:1:c_diameter\[2\]:R:1:c_diameter\[3\]:R:1:angles:R:1:forces:R:3:torques:R:3 separation_distance=2.2444444444444445 energy=-0.3261545953533557 pbc="F F F"
X       10.00000000      10.00000000      10.00000000       0.64278761       0.00000000       0.00000000       0.76604444       1.00000000       2.00000000       1.00000000       1.74532925       1.37358505       0.09448129       0.00000000      -0.00000000      -0.00000000      -0.23229559
X       12.24444444      10.00000000      10.00000000       0.00000000       0.00000000       0.00000000       1.00000000       1.00000000       2.00000000       1.00000000       3.14159265      -1.37358505      -0.09448129      -0.00000000      -0.00000000      -0.00000000       0.02852259
2
Lattice="20.0 0.0 0.0 0.0 20.0 0.0 0.0 0.0 20.0" Properties=species:S:1:pos:R:3:quaternions:R:4:c_diameter\[1\]:R:1:c_diameter\[2\]:R:1:c_diameter\[3\]:R:1:angles:R:1:forces:R:3:torques:R:3 separation_distance=2.2444444444444445 energy=-0.21148422168317627 pbc="F F F"
X       10.00000000      10.00000000      10.00000000       0.50000000       0.00000000       0.00000000       0.86602540       1.00000000       2.00000000       1.00000000       2.09439510       0.78849785       0.13668698       0.00000000      -0.00000000      -0.00000000      -0.32983655
X       12.24444444      10.00000000      10.00000000       1.00000000       0.00000000       0.00000000       0.00000000       1.00000000       2.00000000       1.00000000       0.00000000      -0.78849785      -0.13668698      -0.00000000      -0.00000000      -0.00000000       0.02653423
2
Lattice="20.0 0.0 0.0 0.0 20.0 0.0 0.0 0.0 20.0" Properties=species:S:1:pos:R:3:quaternions:R:4:c_diameter\[1\]:R:1:c_diameter\[2\]:R:1:c_diameter\[3\]:R:1:angles:R:1:forces:R:3:torques:R:3 separation_distance=2.2444444444444445 energy=-0.2695232648412143 pbc="F F F"
X       10.00000000      10.00000000      10.00000000       0.50000000       0.00000000       0.00000000       0.86602540       1.00000000       2.00000000       1.00000000       2.09439510       1.09518499       0.04856339       0.00000000      -0.00000000      -0.00000000      -0.43729979
X       12.24444444      10.00000000      10.00000000       0.98480775       0.00000000       0.00000000       0.17364818       1.00000000       2.00000000       1.00000000       0.34906585      -1.09518499      -0.04856339      -0.00000000      -0.00000000      -0.00000000       0.33781891
2
Lattice="20.0 0.0 0.0 0.0 20.0 0.0 0.0 0.0 20.0" Properties=species:S:1:pos:R:3:quaternions:R:4:c_diameter\[1\]:R:1:c_diameter\[2\]:R:1:c_diameter\[3\]:R:1:angles:R:1:forces:R:3:torques:R:3 separation_distance=2.2444444444444445 energy=-0.4817256439538179 pbc="F F F"
X       10.00000000      10.00000000      10.00000000       0.50000000       0.00000000       0.00000000       0.86602540       1.00000000       2.00000000       1.00000000       2.09439510       2.18719119      -0.05492553       0.00000000      -0.00000000      -0.00000000      -0.83178331
X       12.24444444      10.00000000      10.00000000       0.93969262       0.00000000       0.00000000       0.34202014       1.00000000       2.00000000       1.00000000       0.69813170      -2.18719119       0.05492553      -0.00000000      -0.00000000      -0.00000000       0.97573243
2
Lattice="20.0 0.0 0.0 0.0 20.0 0.0 0.0 0.0 20.0" Properties=species:S:1:pos:R:3:quaternions:R:4:c_diameter\[1\]:R:1:c_diameter\[2\]:R:1:c_diameter\[3\]:R:1:angles:R:1:forces:R:3:torques:R:3 separation_distance=2.2444444444444445 energy=-1.0056047444280434 pbc="F F F"
X       10.00000000      10.00000000      10.00000000       0.50000000       0.00000000       0.00000000       0.86602540       1.00000000       2.00000000       1.00000000       2.09439510       5.07878943       0.00000000       0.00000000      -0.00000000      -0.00000000      -2.01010496
X       12.24444444      10.00000000      10.00000000       0.86602540       0.00000000       0.00000000       0.50000000       1.00000000       2.00000000       1.00000000       1.04719755      -5.07878943      -0.00000000      -0.00000000      -0.00000000      -0.00000000       2.01010496
2
Lattice="20.0 0.0 0.0 0.0 20.0 0.0 0.0 0.0 20.0" Properties=species:S:1:pos:R:3:quaternions:R:4:c_diameter\[1\]:R:1:c_diameter\[2\]:R:1:c_diameter\[3\]:R:1:angles:R:1:forces:R:3:torques:R:3 separation_distance=2.2444444444444445 energy=-1.3779952626399363 pbc="F F F"
X       10.00000000      10.00000000      10.00000000       0.50000000       0.00000000       0.00000000       0.86602540       1.00000000       2.00000000       1.00000000       2.09439510       6.62431133       2.35225211       0.00000000      -0.00000000      -0.00000000      -3.28079296
X       12.24444444      10.00000000      10.00000000       0.64278761       0.00000000       0.00000000       0.76604444       1.00000000       2.00000000       1.00000000       1.74532925      -6.62431133      -2.35225211      -0.00000000      -0.00000000      -0.00000000      -1.94401115
2
Lattice="20.0 0.0 0.0 0.0 20.0 0.0 0.0 0.0 20.0" Properties=species:S:1:pos:R:3:quaternions:R:4:c_diameter\[1\]:R:1:c_diameter\[2\]:R:1:c_diameter\[3\]:R:1:angles:R:1:forces:R:3:torques:R:3 separation_distance=2.2444444444444445 energy=-0.7287094774703675 pbc="F F F"
X       10.00000000      10.00000000      10.00000000       0.50000000       0.00000000       0.00000000       0.86602540       1.00000000       2.00000000       1.00000000       2.09439510       2.95764550       1.26385543       0.00000000      -0.00000000      -0.00000000      -1.42237158
X       12.24444444      10.00000000      10.00000000       0.50000000       0.00000000       0.00000000       0.86602540       1.00000000       2.00000000       1.00000000       2.09439510      -2.95764550      -1.26385543      -0.00000000      -0.00000000      -0.00000000      -1.42237158
2
Lattice="20.0 0.0 0.0 0.0 20.0 0.0 0.0 0.0 20.0" Properties=species:S:1:pos:R:3:quaternions:R:4:c_diameter\[1\]:R:1:c_diameter\[2\]:R:1:c_diameter\[3\]:R:1:angles:R:1:forces:R:3:torques:R:3 separation_distance=2.2444444444444445 energy=-0.38741559614633536 pbc="F F F"
X       10.00000000      10.00000000      10.00000000       0.50000000       0.00000000       0.00000000       0.86602540       1.00000000       2.00000000       1.00000000       2.09439510       1.40765280       0.55556934       0.00000000      -0.00000000      -0.00000000      -0.62153513
X       12.24444444      10.00000000      10.00000000       0.34202014       0.00000000       0.00000000       0.93969262       1.00000000       2.00000000       1.00000000       2.44346095      -1.40765280      -0.55556934      -0.00000000      -0.00000000      -0.00000000      -0.63048820
2
Lattice="20.0 0.0 0.0 0.0 20.0 0.0 0.0 0.0 20.0" Properties=species:S:1:pos:R:3:quaternions:R:4:c_diameter\[1\]:R:1:c_diameter\[2\]:R:1:c_diameter\[3\]:R:1:angles:R:1:forces:R:3:torques:R:3 separation_distance=2.2444444444444445 energy=-0.2456410077794153 pbc="F F F"
X       10.00000000      10.00000000      10.00000000       0.50000000       0.00000000       0.00000000       0.86602540       1.00000000       2.00000000       1.00000000       2.09439510       0.87544062       0.26784778       0.00000000      -0.00000000      -0.00000000      -0.37041133
X       12.24444444      10.00000000      10.00000000       0.17364818       0.00000000       0.00000000       0.98480775       1.00000000       2.00000000       1.00000000       2.79252680      -0.87544062      -0.26784778      -0.00000000      -0.00000000      -0.00000000      -0.23081759
2
Lattice="20.0 0.0 0.0 0.0 20.0 0.0 0.0 0.0 20.0" Properties=species:S:1:pos:R:3:quaternions:R:4:c_diameter\[1\]:R:1:c_diameter\[2\]:R:1:c_diameter\[3\]:R:1:angles:R:1:forces:R:3:torques:R:3 separation_distance=2.2444444444444445 energy=-0.21148422168317657 pbc="F F F"
X       10.00000000      10.00000000      10.00000000       0.50000000       0.00000000       0.00000000       0.86602540       1.00000000       2.00000000       1.00000000       2.09439510       0.78849785       0.13668698       0.00000000      -0.00000000      -0.00000000      -0.32983655
X       12.24444444      10.00000000      10.00000000       0.00000000       0.00000000       0.00000000       1.00000000       1.00000000       2.00000000       1.00000000       3.14159265      -0.78849785      -0.13668698      -0.00000000      -0.00000000      -0.00000000       0.02653423
2
Lattice="20.0 0.0 0.0 0.0 20.0 0.0 0.0 0.0 20.0" Properties=species:S:1:pos:R:3:quaternions:R:4:c_diameter\[1\]:R:1:c_diameter\[2\]:R:1:c_diameter\[3\]:R:1:angles:R:1:forces:R:3:torques:R:3 separation_distance=2.2444444444444445 energy=-0.12055415200420666 pbc="F F F"
X       10.00000000      10.00000000      10.00000000       0.34202014       0.00000000       0.00000000       0.93969262       1.00000000       2.00000000       1.00000000       2.44346095       0.38130458       0.08359334       0.00000000      -0.00000000      -0.00000000      -0.18706234
X       12.24444444      10.00000000      10.00000000       1.00000000       0.00000000       0.00000000       0.00000000       1.00000000       2.00000000       1.00000000       0.00000000      -0.38130458      -0.08359334      -0.00000000      -0.00000000      -0.00000000      -0.00113294
2
Lattice="20.0 0.0 0.0 0.0 20.0 0.0 0.0 0.0 20.0" Properties=species:S:1:pos:R:3:quaternions:R:4:c_diameter\[1\]:R:1:c_diameter\[2\]:R:1:c_diameter\[3\]:R:1:angles:R:1:forces:R:3:torques:R:3 separation_distance=2.2444444444444445 energy=-0.14724194281021144 pbc="F F F"
X       10.00000000      10.00000000      10.00000000       0.34202014       0.00000000       0.00000000       0.93969262       1.00000000       2.00000000       1.00000000       2.44346095       0.51654861       0.03668342       0.00000000      -0.00000000      -0.00000000      -0.24862842
X       12.24444444      10.00000000      10.00000000       0.98480775       0.00000000       0.00000000       0.17364818       1.00000000       2.00000000       1.00000000       0.34906585      -0.51654861      -0.03668342      -0.00000000      -0.00000000      -0.00000000       0.16694170
2
Lattice="20.0 0.0 0.0 0.0 20.0 0.0 0.0 0.0 20.0" Properties=species:S:1:pos:R:3:quaternions:R:4:c_diameter\[1\]:R:1:c_diameter\[2\]:R:1:c_diameter\[3\]:R:1:angles:R:1:forces:R:3:torques:R:3 separation_distance=2.2444444444444445 energy=-0.250545633991345 pbc="F F F"
X       10.00000000      10.00000000      10.00000000       0.34202014       0.00000000       0.00000000       0.93969262       1.00000000       2.00000000       1.00000000       2.44346095       1.00451593       0.00000000       0.00000000      -0.00000000      -0.00000000      -0.45967887
X       12.24444444      10.00000000      10.00000000       0.93969262       0.00000000       0.00000000       0.34202014       1.00000000       2.00000000       1.00000000       0.69813170      -1.00451593      -0.00000000      -0.00000000      -0.00000000      -0.00000000       0.45967887
2
Lattice="20.0 0.0 0.0 0.0 20.0 0.0 0.0 0.0 20.0" Properties=species:S:1:pos:R:3:quaternions:R:4:c_diameter\[1\]:R:1:c_diameter\[2\]:R:1:c_diameter\[3\]:R:1:angles:R:1:forces:R:3:torques:R:3 separation_distance=2.2444444444444445 energy=-0.4817256439538178 pbc="F F F"
X       10.00000000      10.00000000      10.00000000       0.34202014       0.00000000       0.00000000       0.93969262       1.00000000       2.00000000       1.00000000       2.44346095       2.18719119       0.05492553       0.00000000      -0.00000000      -0.00000000      -0.97573243
X       12.24444444      10.00000000      10.00000000       0.86602540       0.00000000       0.00000000       0.50000000       1.00000000       2.00000000       1.00000000       1.04719755      -2.18719119      -0.05492553      -0.00000000      -0.00000000      -0.00000000       0.83178331
2
Lattice="20.0 0.0 0.0 0.0 20.0 0.0 0.0 0.0 20.0" Properties=species:S:1:pos:R:3:quaternions:R:4:c_diameter\[1\]:R:1:c_diameter\[2\]:R:1:c_diameter\[3\]:R:1:angles:R:1:forces:R:3:torques:R:3 separation_distance=2.2444444444444445 energy=-0.7367050635880101 pbc="F F F"
X       10.00000000      10.00000000      10.00000000       0.34202014       0.00000000       0.00000000       0.93969262       1.00000000       2.00000000       1.00000000       2.44346095       3.50584668       0.52562084       0.00000000      -0.00000000      -0.00000000      -1.55848852
X       12.24444444      10.00000000      10.00000000       0.76604444       0.00000000       0.00000000       0.64278761       1.00000000       2.00000000       1.00000000       1.39626340      -3.50584668      -0.52562084      -0.00000000      -0.00000000      -0.00000000       0.34383467
2
Lattice="20.0 0.0 0.0 0.0 20.0 0.0 0.0 0.0 20.0" Properties=species:S:1:pos:R:3:quaternions:R:4:c_diameter\[1\]:R:1:c_diameter\[2\]:R:1:c_diameter\[3\]:R:1:angles:R:1:forces:R:3:torques:R:3 separation_distance=2.2444444444444445 energy=-0.6453888621009398 pbc="F F F"
X       10.00000000      10.00000000      10.00000000       0.34202014       0.00000000       0.00000000       0.93969262       1.00000000       2.00000000       1.00000000       2.44346095       2.80780968       0.86533593       0.00000000      -0.00000000      -0.00000000      -1.23074770
X       12.24444444      10.00000000      10.00000000       0.64278761       0.00000000       0.00000000       0.76604444       1.00000000       2.00000000       1.00000000       1.74532925      -2.80780968      -0.86533593      -0.00000000      -0.00000000      -0.00000000      -0.70598120
2
Lattice="20.0 0.0 0.0 0.0 20.0 0.0 0.0 0.0 20.0" Properties=species:S:1:pos:R:3:quaternions:R:4:c_diameter\[1\]:R:1:c_diameter\[2\]:R:1:c_diameter\[3\]:R:1:angles:R:1:forces:R:3:torques:R:3 separation_distance=2.2444444444444445 energy=-0.38741559614633536 pbc="F F F"
X       10.00000000      10.00000000      10.00000000       0.34202014       0.00000000       0.00000000       0.93969262       1.00000000       2.00000000       1.00000000       2.44346095       1.40765280       0.55556934       0.00000000      -0.00000000      -0.00000000      -0.63048820
X       12.24444444      10.00000000      10.00000000       0.50000000       0.00000000       0.00000000       0.86602540       1.00000000       2.00000000       1.00000000       2.09439510      -1.40765280      -0.55556934      -0.00000000      -0.00000000      -0.00000000      -0.62153513
2
Lattice="20.0 0.0 0.0 0.0 20.0 0.0 0.0 0.0 20.0" Properties=species:S:1:pos:R:3:quaternions:R:4:c_diameter\[1\]:R:1:c_diameter\[2\]:R:1:c_diameter\[3\]:R:1:angles:R:1:forces:R:3:torques:R:3 separation_distance=2.2444444444444445 energy=-0.22589863144231254 pbc="F F F"
X       10.00000000      10.00000000      10.00000000       0.34202014       0.00000000       0.00000000       0.93969262       1.00000000       2.00000000       1.00000000       2.44346095       0.71218070       0.29084950       0.00000000      -0.00000000      -0.00000000      -0.32808249
X       12.24444444      10.00000000      10.00000000       0.34202014       0.00000000       0.00000000       0.93969262       1.00000000       2.00000000       1.00000000       2.44346095      -0.71218070      -0.29084950      -0.00000000      -0.00000000      -0.00000000      -0.32808249
2
Lattice="20.0 0.0 0.0 0.0 20.0 0.0 0.0 0.0 20.0" Properties=species:S:1:pos:R:3:quaternions:R:4:c_diameter\[1\]:R:1:c_diameter\[2\]:R:1:c_diameter\[3\]:R:1:angles:R:1:forces:R:3:torques:R:3 separation_distance=2.2444444444444445 energy=-0.14572300291022347 pbc="F F F"
X       10.00000000      10.00000000      10.00000000       0.34202014       0.00000000       0.00000000       0.93969262       1.00000000       2.00000000       1.00000000       2.44346095       0.44031031       0.15650701       0.00000000      -0.00000000      -0.00000000      -0.20756756
X       12.24444444      10.00000000      10.00000000       0.17364818       0.00000000       0.00000000       0.98480775       1.00000000       2.00000000       1.00000000       2.79252680      -0.44031031      -0.15650701      -0.00000000      -0.00000000      -0.00000000      -0.14518872
2
Lattice="20.0 0.0 0.0 0.0 20.0 0.0 0.0 0.0 20.0" Properties=species:S:1:pos:R:3:quaternions:R:4:c_diameter\[1\]:R:1:c_diameter\[2\]:R:1:c_diameter\[3\]:R:1:angles:R:1:forces:R:3:torques:R:3 separation_distance=2.2444444444444445 energy=-0.12055415200420666 pbc="F F F"
X       10.00000000      10.00000000      10.00000000       0.34202014       0.00000000       0.00000000       0.93969262       1.00000000       2.00000000       1.00000000       2.44346095       0.38130458       0.08359334       0.00000000      -0.00000000      -0.00000000      -0.18706234
X       12.24444444      10.00000000      10.00000000       0.00000000       0.00000000       0.00000000       1.00000000       1.00000000       2.00000000       1.00000000       3.14159265      -0.38130458      -0.08359334      -0.00000000      -0.00000000      -0.00000000      -0.00113294
2
Lattice="20.0 0.0 0.0 0.0 20.0 0.0 0.0 0.0 20.0" Properties=species:S:1:pos:R:3:quaternions:R:4:c_diameter\[1\]:R:1:c_diameter\[2\]:R:1:c_diameter\[3\]:R:1:angles:R:1:forces:R:3:torques:R:3 separation_distance=2.2444444444444445 energy=-0.07587841761714989 pbc="F F F"
X       10.00000000      10.00000000      10.00000000       0.17364818       0.00000000       0.00000000       0.98480775       1.00000000       2.00000000       1.00000000       2.79252680       0.21096831       0.03810247       0.00000000      -0.00000000      -0.00000000      -0.07861839
X       12.24444444      10.00000000      10.00000000       1.00000000       0.00000000       0.00000000       0.00000000       1.00000000       2.00000000       1.00000000       0.00000000      -0.21096831      -0.03810247      -0.00000000      -0.00000000      -0.00000000      -0.00716865
2
Lattice="20.0 0.0 0.0 0.0 20.0 0.0 0.0 0.0 20.0" Properties=species:S:1:pos:R:3:quaternions:R:4:c_diameter\[1\]:R:1:c_diameter\[2\]:R:1:c_diameter\[3\]:R:1:angles:R:1:forces:R:3:torques:R:3 separation_distance=2.2444444444444445 energy=-0.09009619105869682 pbc="F F F"
X       10.00000000      10.00000000      10.00000000       0.17364818       0.00000000       0.00000000       0.98480775       1.00000000       2.00000000       1.00000000       2.79252680       0.27429291       0.00000000       0.00000000      -0.00000000      -0.00000000      -0.09396466
X       12.24444444      10.00000000      10.00000000       0.98480775       0.00000000       0.00000000       0.17364818       1.00000000       2.00000000       1.00000000       0.34906585      -0.27429291      -0.00000000      -0.00000000      -0.00000000      -0.00000000       0.09396466
2
Lattice="20.0 0.0 0.0 0.0 20.0 0.0 0.0 0.0 20.0" Properties=species:S:1:pos:R:3:quaternions:R:4:c_diameter\[1\]:R:1:c_diameter\[2\]:R:1:c_diameter\[3\]:R:1:angles:R:1:forces:R:3:torques:R:3 separation_distance=2.2444444444444445 energy=-0.14724194281021138 pbc="F F F"
X       10.00000000      10.00000000      10.00000000       0.17364818       0.00000000       0.00000000       0.98480775       1.00000000       2.00000000       1.00000000       2.79252680       0.51654861      -0.03668342       0.00000000      -0.00000000      -0.00000000      -0.16694170
X       12.24444444      10.00000000      10.00000000       0.93969262       0.00000000       0.00000000       0.34202014       1.00000000       2.00000000       1.00000000       0.69813170      -0.51654861       0.03668342      -0.00000000      -0.00000000      -0.00000000       0.24862842
2
Lattice="20.0 0.0 0.0 0.0 20.0 0.0 0.0 0.0 20.0" Properties=species:S:1:pos:R:3:quaternions:R:4:c_diameter\[1\]:R:1:c_diameter\[2\]:R:1:c_diameter\[3\]:R:1:angles:R:1:forces:R:3:torques:R:3 separation_distance=2.2444444444444445 energy=-0.26952326484121436 pbc="F F F"
X       10.00000000      10.00000000      10.00000000       0.17364818       0.00000000       0.00000000       0.98480775       1.00000000       2.00000000       1.00000000       2.79252680       1.09518499      -0.04856339       0.00000000      -0.00000000      -0.00000000      -0.33781891
X       12.24444444      10.00000000      10.00000000       0.86602540       0.00000000       0.00000000       0.50000000       1.00000000       2.00000000       1.00000000       1.04719755      -1.09518499       0.04856339      -0.00000000      -0.00000000      -0.00000000       0.43729979
2
Lattice="20.0 0.0 0.0 0.0 20.0 0.0 0.0 0.0 20.0" Properties=species:S:1:pos:R:3:quaternions:R:4:c_diameter\[1\]:R:1:c_diameter\[2\]:R:1:c_diameter\[3\]:R:1:angles:R:1:forces:R:3:torques:R:3 separation_distance=2.2444444444444445 energy=-0.4105166649448391 pbc="F F F"
X       10.00000000      10.00000000      10.00000000       0.17364818       0.00000000       0.00000000       0.98480775       1.00000000       2.00000000       1.00000000       2.79252680       1.80697240       0.11218095       0.00000000      -0.00000000      -0.00000000      -0.50329431
X       12.24444444      10.00000000      10.00000000       0.76604444       0.00000000       0.00000000       0.64278761       1.00000000       2.00000000       1.00000000       1.39626340      -1.80697240      -0.11218095      -0.00000000      -0.00000000      -0.00000000       0.23624755
2
Lattice="20.0 0.0 0.0 0.0 20.0 0.0 0.0 0.0 20.0" Properties=species:S:1:pos:R:3:quaternions:R:4:c_diameter\[1\]:R:1:c_diameter\[2\]:R:1:c_diameter\[3\]:R:1:angles:R:1:forces:R:3:torques:R:3 separation_distance=2.2444444444444445 energy=-0.38584835999189304 pbc="F F F"
X       10.00000000      10.00000000      10.00000000       0.17364818       0.00000000       0.00000000       0.98480775       1.00000000       2.00000000       1.00000000       2.79252680       1.61312467       0.32883410       0.00000000      -0.00000000      -0.00000000      -0.39841286
X       12.24444444      10.00000000      10.00000000       0.64278761       0.00000000       0.00000000       0.76604444       1.00000000       2.00000000       1.00000000       1.74532925      -1.61312467      -0.32883410      -0.00000000      -0.00000000      -0.00000000      -0.33373190
2
Lattice="20.0 0.0 0.0 0.0 20.0 0.0 0.0 0.0 20.0" Properties=species:S:1:pos:R:3:quaternions:R:4:c_diameter\[1\]:R:1:c_diameter\[2\]:R:1:c_diameter\[3\]:R:1:angles:R:1:forces:R:3:torques:R:3 separation_distance=2.2444444444444445 energy=-0.2456410077794153 pbc="F F F"
X       10.00000000      10.00000000      10.00000000       0.17364818       0.00000000       0.00000000       0.98480775       1.00000000       2.00000000       1.00000000       2.79252680       0.87544062       0.26784778       0.00000000      -0.00000000      -0.00000000      -0.23081759
X       12.24444444      10.00000000      10.00000000       0.50000000       0.00000000       0.00000000       0.86602540       1.00000000       2.00000000       1.00000000       2.09439510      -0.87544062      -0.26784778      -0.00000000      -0.00000000      -0.00000000      -0.37041133
2
Lattice="20.0 0.0 0.0 0.0 20.0 0.0 0.0 0.0 20.0" Properties=species:S:1:pos:R:3:quaternions:R:4:c_diameter\[1\]:R:1:c_diameter\[2\]:R:1:c_diameter\[3\]:R:1:angles:R:1:forces:R:3:torques:R:3 separation_distance=2.2444444444444445 energy=-0.14572300291022347 pbc="F F F"
X       10.00000000      10.00000000      10.00000000       0.17364818       0.00000000       0.00000000       0.98480775       1.00000000       2.00000000       1.00000000       2.79252680       0.44031031       0.15650701       0.00000000      -0.00000000      -0.00000000      -0.14518872
X       12.24444444      10.00000000      10.00000000       0.34202014       0.00000000       0.00000000       0.93969262       1.00000000       2.00000000       1.00000000       2.44346095      -0.44031031      -0.15650701      -0.00000000      -0.00000000      -0.00000000      -0.20756756
2
Lattice="20.0 0.0 0.0 0.0 20.0 0.0 0.0 0.0 20.0" Properties=species:S:1:pos:R:3:quaternions:R:4:c_diameter\[1\]:R:1:c_diameter\[2\]:R:1:c_diameter\[3\]:R:1:angles:R:1:forces:R:3:torques:R:3 separation_distance=2.2444444444444445 energy=-0.09402614261242077 pbc="F F F"
X       10.00000000      10.00000000      10.00000000       0.17364818       0.00000000       0.00000000       0.98480775       1.00000000       2.00000000       1.00000000       2.79252680       0.25945205       0.08642844       0.00000000      -0.00000000      -0.00000000      -0.09720847
X       12.24444444      10.00000000      10.00000000       0.17364818       0.00000000       0.00000000       0.98480775       1.00000000       2.00000000       1.00000000       2.79252680      -0.25945205      -0.08642844      -0.00000000      -0.00000000      -0.00000000      -0.09720847
2
Lattice="20.0 0.0 0.0 0.0 20.0 0.0 0.0 0.0 20.0" Properties=species:S:1:pos:R:3:quaternions:R:4:c_diameter\[1\]:R:1:c_diameter\[2\]:R:1:c_diameter\[3\]:R:1:angles:R:1:forces:R:3:torques:R:3 separation_distance=2.2444444444444445 energy=-0.07587841761714997 pbc="F F F"
X       10.00000000      10.00000000      10.00000000       0.17364818       0.00000000       0.00000000       0.98480775       1.00000000       2.00000000       1.00000000       2.79252680       0.21096831       0.03810247       0.00000000      -0.00000000      -0.00000000      -0.07861839
X       12.24444444      10.00000000      10.00000000       0.00000000       0.00000000       0.00000000       1.00000000       1.00000000       2.00000000       1.00000000       3.14159265      -0.21096831      -0.03810247      -0.00000000      -0.00000000      -0.00000000      -0.00716865
2
Lattice="20.0 0.0 0.0 0.0 20.0 0.0 0.0 0.0 20.0" Properties=species:S:1:pos:R:3:quaternions:R:4:c_diameter\[1\]:R:1:c_diameter\[2\]:R:1:c_diameter\[3\]:R:1:angles:R:1:forces:R:3:torques:R:3 separation_distance=2.2444444444444445 energy=-0.06253667733015994 pbc="F F F"
X       10.00000000      10.00000000      10.00000000       0.00000000       0.00000000       0.00000000       1.00000000       1.00000000       2.00000000       1.00000000       3.14159265       0.16569676       0.00000000       0.00000000      -0.00000000      -0.00000000      -0.00000000
X       12.24444444      10.00000000      10.00000000       1.00000000       0.00000000       0.00000000       0.00000000       1.00000000       2.00000000       1.00000000       0.00000000      -0.16569676      -0.00000000      -0.00000000      -0.00000000      -0.00000000      -0.00000000
2
Lattice="20.0 0.0 0.0 0.0 20.0 0.0 0.0 0.0 20.0" Properties=species:S:1:pos:R:3:quaternions:R:4:c_diameter\[1\]:R:1:c_diameter\[2\]:R:1:c_diameter\[3\]:R:1:angles:R:1:forces:R:3:torques:R:3 separation_distance=2.2444444444444445 energy=-0.07587841761714997 pbc="F F F"
X       10.00000000      10.00000000      10.00000000       0.00000000       0.00000000       0.00000000       1.00000000       1.00000000       2.00000000       1.00000000       3.14159265       0.21096831      -0.03810247       0.00000000      -0.00000000      -0.00000000       0.00716865
X       12.24444444      10.00000000      10.00000000       0.98480775       0.00000000       0.00000000       0.17364818       1.00000000       2.00000000       1.00000000       0.34906585      -0.21096831       0.03810247      -0.00000000      -0.00000000      -0.00000000       0.07861839
2
Lattice="20.0 0.0 0.0 0.0 20.0 0.0 0.0 0.0 20.0" Properties=species:S:1:pos:R:3:quaternions:R:4:c_diameter\[1\]:R:1:c_diameter\[2\]:R:1:c_diameter\[3\]:R:1:angles:R:1:forces:R:3:torques:R:3 separation_distance=2.2444444444444445 energy=-0.12055415200420662 pbc="F F F"
X       10.00000000      10.00000000      10.00000000       0.00000000       0.00000000       0.00000000       1.00000000       1.00000000       2.00000000       1.00000000       3.14159265       0.38130458      -0.08359334       0.00000000      -0.00000000      -0.00000000       0.00113294
X       12.24444444      10.00000000      10.00000000       0.93969262       0.00000000       0.00000000       0.34202014       1.00000000       2.00000000       1.00000000       0.69813170      -0.38130458       0.08359334      -0.00000000      -0.00000000      -0.00000000       0.18706234
2
Lattice="20.0 0.0 0.0 0.0 20.0 0.0 0.0 0.0 20.0" Properties=species:S:1:pos:R:3:quaternions:R:4:c_diameter\[1\]:R:1:c_diameter\[2\]:R:1:c_diameter\[3\]:R:1:angles:R:1:forces:R:3:torques:R:3 separation_distance=2.2444444444444445 energy=-0.2114842216831762 pbc="F F F"
X       10.00000000      10.00000000      10.00000000       0.00000000       0.00000000       0.00000000       1.00000000       1.00000000       2.00000000       1.00000000       3.14159265       0.78849785      -0.13668698       0.00000000      -0.00000000      -0.00000000      -0.02653423
X       12.24444444      10.00000000      10.00000000       0.86602540       0.00000000       0.00000000       0.50000000       1.00000000       2.00000000       1.00000000       1.04719755      -0.78849785       0.13668698      -0.00000000      -0.00000000      -0.00000000       0.32983655
2
Lattice="20.0 0.0 0.0 0.0 20.0 0.0 0.0 0.0 20.0" Properties=species:S:1:pos:R:3:quaternions:R:4:c_diameter\[1\]:R:1:c_diameter\[2\]:R:1:c_diameter\[3\]:R:1:angles:R:1:forces:R:3:torques:R:3 separation_distance=2.2444444444444445 energy=-0.32615459535335556 pbc="F F F"
X       10.00000000      10.00000000      10.00000000       0.00000000       0.00000000       0.00000000       1.00000000       1.00000000       2.00000000       1.00000000       3.14159265       1.37358505      -0.09448129       0.00000000      -0.00000000      -0.00000000      -0.02852259
X       12.24444444      10.00000000      10.00000000       0.76604444       0.00000000       0.00000000       0.64278761       1.00000000       2.00000000       1.00000000       1.39626340      -1.37358505       0.09448129      -0.00000000      -0.00000000      -0.00000000       0.23229559
2
Lattice="20.0 0.0 0.0 0.0 20.0 0.0 0.0 0.0 20.0" Properties=species:S:1:pos:R:3:quaternions:R:4:c_diameter\[1\]:R:1:c_diameter\[2\]:R:1:c_diameter\[3\]:R:1:angles:R:1:forces:R:3:torques:R:3 separation_distance=2.2444444444444445 energy=-0.3261545953533557 pbc="F F F"
X       10.00000000      10.00000000      10.00000000       0.00000000       0.00000000       0.00000000       1.00000000       1.00000000       2.00000000       1.00000000       3.14159265       1.37358505       0.09448129       0.00000000      -0.00000000      -0.00000000       0.02852259
X       12.24444444      10.00000000      10.00000000       0.64278761       0.00000000       0.00000000       0.76604444       1.00000000       2.00000000       1.00000000       1.74532925      -1.37358505      -0.09448129      -0.00000000      -0.00000000      -0.00000000      -0.23229559
2
Lattice="20.0 0.0 0.0 0.0 20.0 0.0 0.0 0.0 20.0" Properties=species:S:1:pos:R:3:quaternions:R:4:c_diameter\[1\]:R:1:c_diameter\[2\]:R:1:c_diameter\[3\]:R:1:angles:R:1:forces:R:3:torques:R:3 separation_distance=2.2444444444444445 energy=-0.21148422168317657 pbc="F F F"
X       10.00000000      10.00000000      10.00000000       0.00000000       0.00000000       0.00000000       1.00000000       1.00000000       2.00000000       1.00000000       3.14159265       0.78849785       0.13668698       0.00000000      -0.00000000      -0.00000000       0.02653423
X       12.24444444      10.00000000      10.00000000       0.50000000       0.00000000       0.00000000       0.86602540       1.00000000       2.00000000       1.00000000       2.09439510      -0.78849785      -0.13668698      -0.00000000      -0.00000000      -0.00000000      -0.32983655
2
Lattice="20.0 0.0 0.0 0.0 20.0 0.0 0.0 0.0 20.0" Properties=species:S:1:pos:R:3:quaternions:R:4:c_diameter\[1\]:R:1:c_diameter\[2\]:R:1:c_diameter\[3\]:R:1:angles:R:1:forces:R:3:torques:R:3 separation_distance=2.2444444444444445 energy=-0.12055415200420666 pbc="F F F"
X       10.00000000      10.00000000      10.00000000       0.00000000       0.00000000       0.00000000       1.00000000       1.00000000       2.00000000       1.00000000       3.14159265       0.38130458       0.08359334       0.00000000      -0.00000000      -0.00000000      -0.00113294
X       12.24444444      10.00000000      10.00000000       0.34202014       0.00000000       0.00000000       0.93969262       1.00000000       2.00000000       1.00000000       2.44346095      -0.38130458      -0.08359334      -0.00000000      -0.00000000      -0.00000000      -0.18706234
2
Lattice="20.0 0.0 0.0 0.0 20.0 0.0 0.0 0.0 20.0" Properties=species:S:1:pos:R:3:quaternions:R:4:c_diameter\[1\]:R:1:c_diameter\[2\]:R:1:c_diameter\[3\]:R:1:angles:R:1:forces:R:3:torques:R:3 separation_distance=2.2444444444444445 energy=-0.07587841761714997 pbc="F F F"
X       10.00000000      10.00000000      10.00000000       0.00000000       0.00000000       0.00000000       1.00000000       1.00000000       2.00000000       1.00000000       3.14159265       0.21096831       0.03810247       0.00000000      -0.00000000      -0.00000000      -0.00716865
X       12.24444444      10.00000000      10.00000000       0.17364818       0.00000000       0.00000000       0.98480775       1.00000000       2.00000000       1.00000000       2.79252680      -0.21096831      -0.03810247      -0.00000000      -0.00000000      -0.00000000      -0.07861839
2
Lattice="20.0 0.0 0.0 0.0 20.0 0.0 0.0 0.0 20.0" Properties=species:S:1:pos:R:3:quaternions:R:4:c_diameter\[1\]:R:1:c_diameter\[2\]:R:1:c_diameter\[3\]:R:1:angles:R:1:forces:R:3:torques:R:3 separation_distance=2.2444444444444445 energy=-0.06253667733015994 pbc="F F F"
X       10.00000000      10.00000000      10.00000000       0.00000000       0.00000000       0.00000000       1.00000000       1.00000000       2.00000000       1.00000000       3.14159265       0.16569676       0.00000000       0.00000000      -0.00000000      -0.00000000      -0.00000000
X       12.24444444      10.00000000      10.00000000       0.00000000       0.00000000       0.00000000       1.00000000       1.00000000       2.00000000       1.00000000       3.14159265      -0.16569676      -0.00000000      -0.00000000      -0.00000000      -0.00000000      -0.00000000
2
Lattice="20.0 0.0 0.0 0.0 20.0 0.0 0.0 0.0 20.0" Properties=species:S:1:pos:R:3:quaternions:R:4:c_diameter\[1\]:R:1:c_diameter\[2\]:R:1:c_diameter\[3\]:R:1:angles:R:1:forces:R:3:torques:R:3 separation_distance=2.4 energy=-0.04258829178032618 pbc="F F F"
X       10.00000000      10.00000000      10.00000000       1.00000000       0.00000000       0.00000000       0.00000000       1.00000000       2.00000000       1.00000000       0.00000000       0.09816444       0.00000000       0.00000000      -0.00000000      -0.00000000      -0.00000000
X       12.40000000      10.00000000      10.00000000       1.00000000       0.00000000       0.00000000       0.00000000       1.00000000       2.00000000       1.00000000       0.00000000      -0.09816444      -0.00000000      -0.00000000      -0.00000000      -0.00000000      -0.00000000
2
Lattice="20.0 0.0 0.0 0.0 20.0 0.0 0.0 0.0 20.0" Properties=species:S:1:pos:R:3:quaternions:R:4:c_diameter\[1\]:R:1:c_diameter\[2\]:R:1:c_diameter\[3\]:R:1:angles:R:1:forces:R:3:torques:R:3 separation_distance=2.4 energy=-0.050751059960883756 pbc="F F F"
X       10.00000000      10.00000000      10.00000000       1.00000000       0.00000000       0.00000000       0.00000000       1.00000000       2.00000000       1.00000000       0.00000000       0.12218274      -0.02290689       0.00000000      -0.00000000      -0.00000000       0.00781426
X       12.40000000      10.00000000      10.00000000       0.98480775       0.00000000       0.00000000       0.17364818       1.00000000       2.00000000       1.00000000       0.34906585      -0.12218274       0.02290689      -0.00000000      -0.00000000      -0.00000000       0.04722602
2
Lattice="20.0 0.0 0.0 0.0 20.0 0.0 0.0 0.0 20.0" Properties=species:S:1:pos:R:3:quaternions:R:4:c_diameter\[1\]:R:1:c_diameter\[2\]:R:1:c_diameter\[3\]:R:1:angles:R:1:forces:R:3:torques:R:3 separation_distance=2.4 energy=-0.07650291257784264 pbc="F F F"
X       10.00000000      10.00000000      10.00000000       1.00000000       0.00000000       0.00000000       0.00000000       1.00000000       2.00000000       1.00000000       0.00000000       0.20696854      -0.04654718       0.00000000      -0.00000000      -0.00000000       0.00837707
X       12.40000000      10.00000000      10.00000000       0.93969262       0.00000000       0.00000000       0.34202014       1.00000000       2.00000000       1.00000000       0.69813170      -0.20696854       0.04654718      -0.00000000      -0.00000000      -0.00000000       0.10351632
2
Lattice="20.0 0.0 0.0 0.0 20.0 0.0 0.0 0.0 20.0" Properties=species:S:1:pos:R:3:quaternions:R:4:c_diameter\[1\]:R:1:c_diameter\[2\]:R:1:c_diameter\[3\]:R:1:angles:R:1:forces:R:3:torques:R:3 separation_distance=2.4 energy=-0.12420593957784307 pbc="F F F"
X       10.00000000      10.00000000      10.00000000       1.00000000       0.00000000       0.00000000       0.00000000       1.00000000       2.00000000       1.00000000       0.00000000       0.39024977      -0.06823881       0.00000000      -0.00000000      -0.00000000      -0.00295317
X       12.40000000      10.00000000      10.00000000       0.86602540       0.00000000       0.00000000       0.50000000       1.00000000       2.00000000       1.00000000       1.04719755      -0.39024977       0.06823881      -0.00000000      -0.00000000      -0.00000000       0.16504209
2
Lattice="20.0 0.0 0.0 0.0 20.0 0.0 0.0 0.0 20.0" Properties=species:S:1:pos:R:3:quaternions:R:4:c_diameter\[1\]:R:1:c_diameter\[2\]:R:1:c_diameter\[3\]:R:1:angles:R:1:forces:R:3:torques:R:3 separation_distance=2.4 energy=-0.17925714468385764 pbc="F F F"
X       10.00000000      10.00000000      10.00000000       1.00000000       0.00000000       0.00000000       0.00000000       1.00000000       2.00000000       1.00000000       0.00000000       0.63019441      -0.04319742       0.00000000      -0.00000000      -0.00000000      -0.00759158
X       12.40000000      10.00000000      10.00000000       0.76604444       0.00000000       0.00000000       0.64278761       1.00000000       2.00000000       1.00000000       1.39626340      -0.63019441       0.04319742      -0.00000000      -0.00000000      -0.00000000       0.10785336
2
Lattice="20.0 0.0 0.0 0.0 20.0 0.0 0.0 0.0 20.0" Properties=species:S:1:pos:R:3:quaternions:R:4:c_diameter\[1\]:R:1:c_diameter\[2\]:R:1:c_diameter\[3\]:R:1:angles:R:1:forces:R:3:torques:R:3 separation_distance=2.4 energy=-0.17925714468385764 pbc="F F F"
X       10.00000000      10.00000000      10.00000000       1.00000000       0.00000000       0.00000000       0.00000000       1.00000000       2.00000000       1.00000000       0.00000000       0.63019441       0.04319742       0.00000000      -0.00000000      -0.00000000       0.00759158
X       12.40000000      10.00000000      10.00000000       0.64278761       0.00000000       0.00000000       0.76604444       1.00000000       2.00000000       1.00000000       1.74532925      -0.63019441      -0.04319742      -0.00000000      -0.00000000      -0.00000000      -0.10785336
2
Lattice="20.0 0.0 0.0 0.0 20.0 0.0 0.0 0.0 20.0" Properties=species:S:1:pos:R:3:quaternions:R:4:c_diameter\[1\]:R:1:c_diameter\[2\]:R:1:c_diameter\[3\]:R:1:angles:R:1:forces:R:3:torques:R:3 separation_distance=2.4 energy=-0.12420593957784308 pbc="F F F"
X       10.00000000      10.00000000      10.00000000       1.00000000       0.00000000       0.00000000       0.00000000       1.00000000       2.00000000       1.00000000       0.00000000       0.39024977       0.06823881       0.00000000      -0.00000000      -0.00000000       0.00295317
X       12.40000000      10.00000000      10.00000000       0.50000000       0.00000000       0.00000000       0.86602540       1.00000000       2.00000000       1.00000000       2.09439510      -0.39024977      -0.06823881      -0.00000000      -0.00000000      -0.00000000      -0.16504209
2
Lattice="20.0 0.0 0.0 0.0 20.0 0.0 0.0 0.0 20.0" Properties=species:S:1:pos:R:3:quaternions:R:4:c_diameter\[1\]:R:1:c_diameter\[2\]:R:1:c_diameter\[3\]:R:1:angles:R:1:forces:R:3:torques:R:3 separation_distance=2.4 energy=-0.07650291257784261 pbc="F F F"
X       10.00000000      10.00000000      10.00000000       1.00000000       0.00000000       0.00000000       0.00000000       1.00000000       2.00000000       1.00000000       0.00000000       0.20696854       0.04654718       0.00000000      -0.00000000      -0.00000000      -0.00837707
X       12.40000000      10.00000000      10.00000000       0.34202014       0.00000000       0.00000000       0.93969262       1.00000000       2.00000000       1.00000000       2.44346095      -0.20696854      -0.04654718      -0.00000000      -0.00000000      -0.00000000      -0.10351632
2
Lattice="20.0 0.0 0.0 0.0 20.0 0.0 0.0 0.0 20.0" Properties=species:S:1:pos:R:3:quaternions:R:4:c_diameter\[1\]:R:1:c_diameter\[2\]:R:1:c_diameter\[3\]:R:1:angles:R:1:forces:R:3:torques:R:3 separation_distance=2.4 energy=-0.05075105996088375 pbc="F F F"
X       10.00000000      10.00000000      10.00000000       1.00000000       0.00000000       0.00000000       0.00000000       1.00000000       2.00000000       1.00000000       0.00000000       0.12218274       0.02290689       0.00000000      -0.00000000      -0.00000000      -0.00781426
X       12.40000000      10.00000000      10.00000000       0.17364818       0.00000000       0.00000000       0.98480775       1.00000000       2.00000000       1.00000000       2.79252680      -0.12218274      -0.02290689      -0.00000000      -0.00000000      -0.00000000      -0.04722602
2
Lattice="20.0 0.0 0.0 0.0 20.0 0.0 0.0 0.0 20.0" Properties=species:S:1:pos:R:3:quaternions:R:4:c_diameter\[1\]:R:1:c_diameter\[2\]:R:1:c_diameter\[3\]:R:1:angles:R:1:forces:R:3:torques:R:3 separation_distance=2.4 energy=-0.04258829178032618 pbc="F F F"
X       10.00000000      10.00000000      10.00000000       1.00000000       0.00000000       0.00000000       0.00000000       1.00000000       2.00000000       1.00000000       0.00000000       0.09816444       0.00000000       0.00000000      -0.00000000      -0.00000000      -0.00000000
X       12.40000000      10.00000000      10.00000000       0.00000000       0.00000000       0.00000000       1.00000000       1.00000000       2.00000000       1.00000000       3.14159265      -0.09816444      -0.00000000      -0.00000000      -0.00000000      -0.00000000      -0.00000000
2
Lattice="20.0 0.0 0.0 0.0 20.0 0.0 0.0 0.0 20.0" Properties=species:S:1:pos:R:3:quaternions:R:4:c_diameter\[1\]:R:1:c_diameter\[2\]:R:1:c_diameter\[3\]:R:1:angles:R:1:forces:R:3:torques:R:3 separation_distance=2.4 energy=-0.050751059960883756 pbc="F F F"
X       10.00000000      10.00000000      10.00000000       0.98480775       0.00000000       0.00000000       0.17364818       1.00000000       2.00000000       1.00000000       0.34906585       0.12218274      -0.02290689       0.00000000      -0.00000000      -0.00000000       0.04722602
X       12.40000000      10.00000000      10.00000000       1.00000000       0.00000000       0.00000000       0.00000000       1.00000000       2.00000000       1.00000000       0.00000000      -0.12218274       0.02290689      -0.00000000      -0.00000000      -0.00000000       0.00781426
2
Lattice="20.0 0.0 0.0 0.0 20.0 0.0 0.0 0.0 20.0" Properties=species:S:1:pos:R:3:quaternions:R:4:c_diameter\[1\]:R:1:c_diameter\[2\]:R:1:c_diameter\[3\]:R:1:angles:R:1:forces:R:3:torques:R:3 separation_distance=2.4 energy=-0.06307118132535677 pbc="F F F"
X       10.00000000      10.00000000      10.00000000       0.98480775       0.00000000       0.00000000       0.17364818       1.00000000       2.00000000       1.00000000       0.34906585       0.15080717      -0.05183876       0.00000000      -0.00000000      -0.00000000       0.06219869
X       12.40000000      10.00000000      10.00000000       0.98480775       0.00000000       0.00000000       0.17364818       1.00000000       2.00000000       1.00000000       0.34906585      -0.15080717       0.05183876      -0.00000000      -0.00000000      -0.00000000       0.06219869
2
Lattice="20.0 0.0 0.0 0.0 20.0 0.0 0.0 0.0 20.0" Properties=species:S:1:pos:R:3:quaternions:R:4:c_diameter\[1\]:R:1:c_diameter\[2\]:R:1:c_diameter\[3\]:R:1:angles:R:1:forces:R:3:torques:R:3 separation_distance=2.4 energy=-0.0942864182835636 pbc="F F F"
X       10.00000000      10.00000000      10.00000000       0.98480775       0.00000000       0.00000000       0.17364818       1.00000000       2.00000000       1.00000000       0.34906585       0.24473217      -0.08864099       0.00000000      -0.00000000      -0.00000000       0.09449405
X       12.40000000      10.00000000      10.00000000       0.93969262       0.00000000       0.00000000       0.34202014       1.00000000       2.00000000       1.00000000       0.69813170      -0.24473217       0.08864099      -0.00000000      -0.00000000      -0.00000000       0.11866537
2
Lattice="20.0 0.0 0.0 0.0 20.0 0.0 0.0 0.0 20.0" Properties=species:S:1:pos:R:3:quaternions:R:4:c_diameter\[1\]:R:1:c_diameter\[2\]:R:1:c_diameter\[3\]:R:1:angles:R:1:forces:R:3:torques:R:3 separation_distance=2.4 energy=-0.14755214401421968 pbc="F F F"
X       10.00000000      10.00000000      10.00000000       0.98480775       0.00000000       0.00000000       0.17364818       1.00000000       2.00000000       1.00000000       0.34906585       0.44489414      -0.13650515       0.00000000      -0.00000000      -0.00000000       0.14213978
X       12.40000000      10.00000000      10.00000000       0.86602540       0.00000000       0.00000000       0.50000000       1.00000000       2.00000000       1.00000000       1.04719755      -0.44489414       0.13650515      -0.00000000      -0.00000000      -0.00000000       0.18521856
2
Lattice="20.0 0.0 0.0 0.0 20.0 0.0 0.0 0.0 20.0" Properties=species:S:1:pos:R:3:quaternions:R:4:c_diameter\[1\]:R:1:c_diameter\[2\]:R:1:c_diameter\[3\]:R:1:angles:R:1:forces:R:3:torques:R:3 separation_distance=2.4 energy=-0.2129661875410438 pbc="F F F"
X       10.00000000      10.00000000      10.00000000       0.98480775       0.00000000       0.00000000       0.17364818       1.00000000       2.00000000       1.00000000       0.34906585       0.74360887      -0.15024903       0.00000000      -0.00000000      -0.00000000       0.21466027
X       12.40000000      10.00000000      10.00000000       0.76604444       0.00000000       0.00000000       0.64278761       1.00000000       2.00000000       1.00000000       1.39626340      -0.74360887       0.15024903      -0.00000000      -0.00000000      -0.00000000       0.14378666
2
Lattice="20.0 0.0 0.0 0.0 20.0 0.0 0.0 0.0 20.0" Properties=species:S:1:pos:R:3:quaternions:R:4:c_diameter\[1\]:R:1:c_diameter\[2\]:R:1:c_diameter\[3\]:R:1:angles:R:1:forces:R:3:torques:R:3 separation_distance=2.4 energy=-0.219757764215454 pbc="F F F"
X       10.00000000      10.00000000      10.00000000       0.98480775       0.00000000       0.00000000       0.17364818       1.00000000       2.00000000       1.00000000       0.34906585       0.80528882      -0.04951232       0.00000000      -0.00000000      -0.00000000       0.24496647
X       12.40000000      10.00000000      10.00000000       0.64278761       0.00000000       0.00000000       0.76604444       1.00000000       2.00000000       1.00000000       1.74532925      -0.80528882       0.04951232      -0.00000000      -0.00000000      -0.00000000      -0.11957233
2
Lattice="20.0 0.0 0.0 0.0 20.0 0.0 0.0 0.0 20.0" Properties=species:S:1:pos:R:3:quaternions:R:4:c_diameter\[1\]:R:1:c_diameter\[2\]:R:1:c_diameter\[3\]:R:1:angles:R:1:forces:R:3:torques:R:3 separation_distance=2.4 energy=-0.15118347019359216 pbc="F F F"
X       10.00000000      10.00000000      10.00000000       0.98480775       0.00000000       0.00000000       0.17364818       1.00000000       2.00000000       1.00000000       0.34906585       0.51412121       0.02284431       0.00000000      -0.00000000      -0.00000000       0.16433749
X       12.40000000      10.00000000      10.00000000       0.50000000       0.00000000       0.00000000       0.86602540       1.00000000       2.00000000       1.00000000       2.09439510      -0.51412121      -0.02284431      -0.00000000      -0.00000000      -0.00000000      -0.21494163
2
Lattice="20.0 0.0 0.0 0.0 20.0 0.0 0.0 0.0 20.0" Properties=species:S:1:pos:R:3:quaternions:R:4:c_diameter\[1\]:R:1:c_diameter\[2\]:R:1:c_diameter\[3\]:R:1:angles:R:1:forces:R:3:torques:R:3 separation_distance=2.4 energy=-0.0891229995378035 pbc="F F F"
X       10.00000000      10.00000000      10.00000000       0.98480775       0.00000000       0.00000000       0.17364818       1.00000000       2.00000000       1.00000000       0.34906585       0.26489010       0.01919779       0.00000000      -0.00000000      -0.00000000       0.08558198
X       12.40000000      10.00000000      10.00000000       0.34202014       0.00000000       0.00000000       0.93969262       1.00000000       2.00000000       1.00000000       2.44346095      -0.26489010      -0.01919779      -0.00000000      -0.00000000      -0.00000000      -0.13128945
2
Lattice="20.0 0.0 0.0 0.0 20.0 0.0 0.0 0.0 20.0" Properties=species:S:1:pos:R:3:quaternions:R:4:c_diameter\[1\]:R:1:c_diameter\[2\]:R:1:c_diameter\[3\]:R:1:angles:R:1:forces:R:3:torques:R:3 separation_distance=2.4 energy=-0.05811157070719721 pbc="F F F"
X       10.00000000      10.00000000      10.00000000       0.98480775       0.00000000       0.00000000       0.17364818       1.00000000       2.00000000       1.00000000       0.34906585       0.15186971       0.00000000       0.00000000      -0.00000000      -0.00000000       0.05189549
X       12.40000000      10.00000000      10.00000000       0.17364818       0.00000000       0.00000000       0.98480775       1.00000000       2.00000000       1.00000000       2.79252680      -0.15186971      -0.00000000      -0.00000000      -0.00000000      -0.00000000      -0.05189549
2
Lattice="20.0 0.0 0.0 0.0 20.0 0.0 0.0 0.0 20.0" Properties=species:S:1:pos:R:3:quaternions:R:4:c_diameter\[1\]:R:1:c_diameter\[2\]:R:1:c_diameter\[3\]:R:1:angles:R:1:forces:R:3:torques:R:3 separation_distance=2.4 energy=-0.050751059960883756 pbc="F F F"
X       10.00000000      10.00000000      10.00000000       0.98480775       0.00000000       0.00000000       0.17364818       1.00000000       2.00000000       1.00000000       0.34906585       0.12218274      -0.02290689       0.00000000      -0.00000000      -0.00000000       0.04722602
X       12.40000000      10.00000000      10.00000000       0.00000000       0.00000000       0.00000000       1.00000000       1.00000000       2.00000000       1.00000000       3.14159265      -0.12218274       0.02290689      -0.00000000      -0.00000000      -0.00000000       0.00781426
2
Lattice="20.0 0.0 0.0 0.0 20.0 0.0 0.0 0.0 20.0" Properties=species:S:1:pos:R:3:quaternions:R:4:c_diameter\[1\]:R:1:c_diameter\[2\]:R:1:c_diameter\[3\]:R:1:angles:R:1:forces:R:3:torques:R:3 separation_distance=2.4 energy=-0.07650291257784264 pbc="F F F"
X       10.00000000      10.00000000      10.00000000       0.93969262       0.00000000       0.00000000       0.34202014       1.00000000       2.00000000       1.00000000       0.69813170       0.20696854      -0.04654718       0.00000000      -0.00000000      -0.00000000       0.10351632
X       12.40000000      10.00000000      10.00000000       1.00000000       0.00000000       0.00000000       0.00000000       1.00000000       2.00000000       1.00000000       0.00000000      -0.20696854       0.04654718      -0.00000000      -0.00000000      -0.00000000       0.00837707
2
Lattice="20.0 0.0 0.0 0.0 20.0 0.0 0.0 0.0 20.0" Properties=species:S:1:pos:R:3:quaternions:R:4:c_diameter\[1\]:R:1:c_diameter\[2\]:R:1:c_diameter\[3\]:R:1:angles:R:1:forces:R:3:torques:R:3 separation_distance=2.4 energy=-0.0942864182835636 pbc="F F F"
X       10.00000000      10.00000000      10.00000000       0.93969262       0.00000000       0.00000000       0.34202014       1.00000000       2.00000000       1.00000000       0.69813170       0.24473217      -0.08864099       0.00000000      -0.00000000      -0.00000000       0.11866537
X       12.40000000      10.00000000      10.00000000       0.98480775       0.00000000       0.00000000       0.17364818       1.00000000       2.00000000       1.00000000       0.34906585      -0.24473217       0.08864099      -0.00000000      -0.00000000      -0.00000000       0.09449405
2
Lattice="20.0 0.0 0.0 0.0 20.0 0.0 0.0 0.0 20.0" Properties=species:S:1:pos:R:3:quaternions:R:4:c_diameter\[1\]:R:1:c_diameter\[2\]:R:1:c_diameter\[3\]:R:1:angles:R:1:forces:R:3:torques:R:3 separation_distance=2.4 energy=-0.14355601893782902 pbc="F F F"
X       10.00000000      10.00000000      10.00000000       0.93969262       0.00000000       0.00000000       0.34202014       1.00000000       2.00000000       1.00000000       0.69813170       0.38722840      -0.15886010       0.00000000      -0.00000000      -0.00000000       0.19103962
X       12.40000000      10.00000000      10.00000000       0.93969262       0.00000000       0.00000000       0.34202014       1.00000000       2.00000000       1.00000000       0.69813170      -0.38722840       0.15886010      -0.00000000      -0.00000000      -0.00000000       0.19103962
2
Lattice="20.0 0.0 0.0 0.0 20.0 0.0 0.0 0.0 20.0" Properties=species:S:1:pos:R:3:quaternions:R:4:c_diameter\[1\]:R:1:c_diameter\[2\]:R:1:c_diameter\[3\]:R:1:angles:R:1:forces:R:3:torques:R:3 separation_distance=2.4 energy=-0.2305088742047613 pbc="F F F"
X       10.00000000      10.00000000      10.00000000       0.93969262       0.00000000       0.00000000       0.34202014       1.00000000       2.00000000       1.00000000       0.69813170       0.70737874      -0.27604500       0.00000000      -0.00000000      -0.00000000       0.35345990
X       12.40000000      10.00000000      10.00000000       0.86602540       0.00000000       0.00000000       0.50000000       1.00000000       2.00000000       1.00000000       1.04719755      -0.70737874       0.27604500      -0.00000000      -0.00000000      -0.00000000       0.31000850
2
Lattice="20.0 0.0 0.0 0.0 20.0 0.0 0.0 0.0 20.0" Properties=species:S:1:pos:R:3:quaternions:R:4:c_diameter\[1\]:R:1:c_diameter\[2\]:R:1:c_diameter\[3\]:R:1:angles:R:1:forces:R:3:torques:R:3 separation_distance=2.4 energy=-0.34795066414676834 pbc="F F F"
X       10.00000000      10.00000000      10.00000000       0.93969262       0.00000000       0.00000000       0.34202014       1.00000000       2.00000000       1.00000000       0.69813170       1.26106854      -0.38014494       0.00000000      -0.00000000      -0.00000000       0.61971078
X       12.40000000      10.00000000      10.00000000       0.76604444       0.00000000       0.00000000       0.64278761       1.00000000       2.00000000       1.00000000       1.39626340      -1.26106854       0.38014494      -0.00000000      -0.00000000      -0.00000000       0.29026721
2
Lattice="20.0 0.0 0.0 0.0 20.0 0.0 0.0 0.0 20.0" Properties=species:S:1:pos:R:3:quaternions:R:4:c_diameter\[1\]:R:1:c_diameter\[2\]:R:1:c_diameter\[3\]:R:1:angles:R:1:forces:R:3:torques:R:3 separation_distance=2.4 energy=-0.3750752256093172 pbc="F F F"
X       10.00000000      10.00000000      10.00000000       0.93969262       0.00000000       0.00000000       0.34202014       1.00000000       2.00000000       1.00000000       0.69813170       1.48157200      -0.21689379       0.00000000      -0.00000000      -0.00000000       0.72286190
X       12.40000000      10.00000000      10.00000000       0.64278761       0.00000000       0.00000000       0.76604444       1.00000000       2.00000000       1.00000000       1.74532925      -1.48157200       0.21689379      -0.00000000      -0.00000000      -0.00000000      -0.18793905
2
Lattice="20.0 0.0 0.0 0.0 20.0 0.0 0.0 0.0 20.0" Properties=species:S:1:pos:R:3:quaternions:R:4:c_diameter\[1\]:R:1:c_diameter\[2\]:R:1:c_diameter\[3\]:R:1:angles:R:1:forces:R:3:torques:R:3 separation_distance=2.4 energy=-0.25293954982302613 pbc="F F F"
X       10.00000000      10.00000000      10.00000000       0.93969262       0.00000000       0.00000000       0.34202014       1.00000000       2.00000000       1.00000000       0.69813170       0.95461704      -0.02364599       0.00000000      -0.00000000      -0.00000000       0.45745062
X       12.40000000      10.00000000      10.00000000       0.50000000       0.00000000       0.00000000       0.86602540       1.00000000       2.00000000       1.00000000       2.09439510      -0.95461704       0.02364599      -0.00000000      -0.00000000      -0.00000000      -0.39229610
2
Lattice="20.0 0.0 0.0 0.0 20.0 0.0 0.0 0.0 20.0" Properties=species:S:1:pos:R:3:quaternions:R:4:c_diameter\[1\]:R:1:c_diameter\[2\]:R:1:c_diameter\[3\]:R:1:angles:R:1:forces:R:3:torques:R:3 separation_distance=2.4 energy=-0.14158716007235847 pbc="F F F"
X       10.00000000      10.00000000      10.00000000       0.93969262       0.00000000       0.00000000       0.34202014       1.00000000       2.00000000       1.00000000       0.69813170       0.47555834       0.00000000       0.00000000      -0.00000000      -0.00000000       0.22846198
X       12.40000000      10.00000000      10.00000000       0.34202014       0.00000000       0.00000000       0.93969262       1.00000000       2.00000000       1.00000000       2.44346095      -0.47555834      -0.00000000      -0.00000000      -0.00000000      -0.00000000      -0.22846198
2
Lattice="20.0 0.0 0.0 0.0 20.0 0.0 0.0 0.0 20.0" Properties=species:S:1:pos:R:3:quaternions:R:4:c_diameter\[1\]:R:1:c_diameter\[2\]:R:1:c_diameter\[3\]:R:1:angles:R:1:forces:R:3:torques:R:3 separation_distance=2.4 energy=-0.08912299953780362 pbc="F F F"
X       10.00000000      10.00000000      10.00000000       0.93969262       0.00000000       0.00000000       0.34202014       1.00000000       2.00000000       1.00000000       0.69813170       0.26489010      -0.01919779       0.00000000      -0.00000000      -0.00000000       0.13128945
X       12.40000000      10.00000000      10.00000000       0.17364818       0.00000000       0.00000000       0.98480775       1.00000000       2.00000000       1.00000000       2.79252680      -0.26489010       0.01919779      -0.00000000      -0.00000000      -0.00000000      -0.08558198
2
Lattice="20.0 0.0 0.0 0.0 20.0 0.0 0.0 0.0 20.0" Properties=species:S:1:pos:R:3:quaternions:R:4:c_diameter\[1\]:R:1:c_diameter\[2\]:R:1:c_diameter\[3\]:R:1:angles:R:1:forces:R:3:torques:R:3 separation_distance=2.4 energy=-0.07650291257784259 pbc="F F F"
X       10.00000000      10.00000000      10.00000000       0.93969262       0.00000000       0.00000000       0.34202014       1.00000000       2.00000000       1.00000000       0.69813170       0.20696854      -0.04654718       0.00000000      -0.00000000      -0.00000000       0.10351632
X       12.40000000      10.00000000      10.00000000       0.00000000       0.00000000       0.00000000       1.00000000       1.00000000       2.00000000       1.00000000       3.14159265      -0.20696854       0.04654718      -0.00000000      -0.00000000      -0.00000000       0.00837707
2
Lattice="20.0 0.0 0.0 0.0 20.0 0.0 0.0 0.0 20.0" Properties=species:S:1:pos:R:3:quaternions:R:4:c_diameter\[1\]:R:1:c_diameter\[2\]:R:1:c_diameter\[3\]:R:1:angles:R:1:forces:R:3:torques:R:3 separation_distance=2.4 energy=-0.12420593957784307 pbc="F F F"
X       10.00000000      10.00000000      10.00000000       0.86602540       0.00000000       0.00000000       0.50000000       1.00000000       2.00000000       1.00000000       1.04719755       0.39024977      -0.06823881       0.00000000      -0.00000000      -0.00000000       0.16504209
X       12.40000000      10.00000000      10.00000000       1.00000000       0.00000000       0.00000000       0.00000000       1.00000000       2.00000000       1.00000000       0.00000000      -0.39024977       0.06823881      -0.00000000      -0.00000000      -0.00000000      -0.00295317
2
Lattice="20.0 0.0 0.0 0.0 20.0 0.0 0.0 0.0 20.0" Properties=species:S:1:pos:R:3:quaternions:R:4:c_diameter\[1\]:R:1:c_diameter\[2\]:R:1:c_diameter\[3\]:R:1:angles:R:1:forces:R:3:torques:R:3 separation_distance=2.4 energy=-0.14755214401421968 pbc="F F F"
X       10.00000000      10.00000000      10.00000000       0.86602540       0.00000000       0.00000000       0.50000000       1.00000000       2.00000000       1.00000000       1.04719755       0.44489414      -0.13650515       0.00000000      -0.00000000      -0.00000000       0.18521856
X       12.40000000      10.00000000      10.00000000       0.98480775       0.00000000       0.00000000       0.17364818       1.00000000       2.00000000       1.00000000       0.34906585      -0.44489414       0.13650515      -0.00000000      -0.00000000      -0.00000000       0.14213978
2
Lattice="20.0 0.0 0.0 0.0 20.0 0.0 0.0 0.0 20.0" Properties=species:S:1:pos:R:3:quaternions:R:4:c_diameter\[1\]:R:1:c_diameter\[2\]:R:1:c_diameter\[3\]:R:1:angles:R:1:forces:R:3:torques:R:3 separation_distance=2.4 energy=-0.2305088742047613 pbc="F F F"
X       10.00000000      10.00000000      10.00000000       0.86602540       0.00000000       0.00000000       0.50000000       1.00000000       2.00000000       1.00000000       1.04719755       0.70737874      -0.27604500       0.00000000      -0.00000000      -0.00000000       0.31000850
X       12.40000000      10.00000000      10.00000000       0.93969262       0.00000000       0.00000000       0.34202014       1.00000000       2.00000000       1.00000000       0.69813170      -0.70737874       0.27604500      -0.00000000      -0.00000000      -0.00000000       0.35345990
2
Lattice="20.0 0.0 0.0 0.0 20.0 0.0 0.0 0.0 20.0" Properties=species:S:1:pos:R:3:quaternions:R:4:c_diameter\[1\]:R:1:c_diameter\[2\]:R:1:c_diameter\[3\]:R:1:angles:R:1:forces:R:3:torques:R:3 separation_distance=2.4 energy=-0.4090170208649651 pbc="F F F"
X       10.00000000      10.00000000      10.00000000       0.86602540       0.00000000       0.00000000       0.50000000       1.00000000       2.00000000       1.00000000       1.04719755       1.38944164      -0.57838364       0.00000000      -0.00000000      -0.00000000       0.69339934
X       12.40000000      10.00000000      10.00000000       0.86602540       0.00000000       0.00000000       0.50000000       1.00000000       2.00000000       1.00000000       1.04719755      -1.38944164       0.57838364      -0.00000000      -0.00000000      -0.00000000       0.69339934
2
Lattice="20.0 0.0 0.0 0.0 20.0 0.0 0.0 0.0 20.0" Properties=species:S:1:pos:R:3:quaternions:R:4:c_diameter\[1\]:R:1:c_diameter\[2\]:R:1:c_diameter\[3\]:R:1:angles:R:1:forces:R:3:torques:R:3 separation_distance=2.4 energy=-0.6967408910285066 pbc="F F F"
X       10.00000000      10.00000000      10.00000000       0.86602540       0.00000000       0.00000000       0.50000000       1.00000000       2.00000000       1.00000000       1.04719755       2.77981800      -0.95219761       0.00000000      -0.00000000      -0.00000000       1.47989587
X       12.40000000      10.00000000      10.00000000       0.76604444       0.00000000       0.00000000       0.64278761       1.00000000       2.00000000       1.00000000       1.39626340      -2.77981800       0.95219761      -0.00000000      -0.00000000      -0.00000000       0.77942005
2
Lattice="20.0 0.0 0.0 0.0 20.0 0.0 0.0 0.0 20.0" Properties=species:S:1:pos:R:3:quaternions:R:4:c_diameter\[1\]:R:1:c_diameter\[2\]:R:1:c_diameter\[3\]:R:1:angles:R:1:forces:R:3:torques:R:3 separation_distance=2.4 energy=-0.7838970130894752 pbc="F F F"
X       10.00000000      10.00000000      10.00000000       0.86602540       0.00000000       0.00000000       0.50000000       1.00000000       2.00000000       1.00000000       1.04719755       3.43138871      -0.51569376       0.00000000      -0.00000000      -0.00000000       1.69999434
X       12.40000000      10.00000000      10.00000000       0.64278761       0.00000000       0.00000000       0.76604444       1.00000000       2.00000000       1.00000000       1.74532925      -3.43138871       0.51569376      -0.00000000      -0.00000000      -0.00000000      -0.45128853
2
Lattice="20.0 0.0 0.0 0.0 20.0 0.0 0.0 0.0 20.0" Properties=species:S:1:pos:R:3:quaternions:R:4:c_diameter\[1\]:R:1:c_diameter\[2\]:R:1:c_diameter\[3\]:R:1:angles:R:1:forces:R:3:torques:R:3 separation_distance=2.4 energy=-0.4907637885506161 pbc="F F F"
X       10.00000000      10.00000000      10.00000000       0.86602540       0.00000000       0.00000000       0.50000000       1.00000000       2.00000000       1.00000000       1.04719755       2.05878534       0.00000000       0.00000000      -0.00000000      -0.00000000       0.89317074
X       12.40000000      10.00000000      10.00000000       0.50000000       0.00000000       0.00000000       0.86602540       1.00000000       2.00000000       1.00000000       2.09439510      -2.05878534      -0.00000000      -0.00000000      -0.00000000      -0.00000000      -0.89317074
2
Lattice="20.0 0.0 0.0 0.0 20.0 0.0 0.0 0.0 20.0" Properties=species:S:1:pos:R:3:quaternions:R:4:c_diameter\[1\]:R:1:c_diameter\[2\]:R:1:c_diameter\[3\]:R:1:angles:R:1:forces:R:3:torques:R:3 separation_distance=2.4 energy=-0.252939549823026 pbc="F F F"
X       10.00000000      10.00000000      10.00000000       0.86602540       0.00000000       0.00000000       0.50000000       1.00000000       2.00000000       1.00000000       1.04719755       0.95461704       0.02364599       0.00000000      -0.00000000      -0.00000000       0.39229610
X       12.40000000      10.00000000      10.00000000       0.34202014       0.00000000       0.00000000       0.93969262       1.00000000       2.00000000       1.00000000       2.44346095      -0.95461704      -0.02364599      -0.00000000      -0.00000000      -0.00000000      -0.45745062
2
Lattice="20.0 0.0 0.0 0.0 20.0 0.0 0.0 0.0 20.0" Properties=species:S:1:pos:R:3:quaternions:R:4:c_diameter\[1\]:R:1:c_diameter\[2\]:R:1:c_diameter\[3\]:R:1:angles:R:1:forces:R:3:torques:R:3 separation_distance=2.4 energy=-0.15118347019359218 pbc="F F F"
X       10.00000000      10.00000000      10.00000000       0.86602540       0.00000000       0.00000000       0.50000000       1.00000000       2.00000000       1.00000000       1.04719755       0.51412121      -0.02284431       0.00000000      -0.00000000      -0.00000000       0.21494163
X       12.40000000      10.00000000      10.00000000       0.17364818       0.00000000       0.00000000       0.98480775       1.00000000       2.00000000       1.00000000       2.79252680      -0.51412121       0.02284431      -0.00000000      -0.00000000      -0.00000000      -0.16433749
2
Lattice="20.0 0.0 0.0 0.0 20.0 0.0 0.0 0.0 20.0" Properties=species:S:1:pos:R:3:quaternions:R:4:c_diameter\[1\]:R:1:c_diameter\[2\]:R:1:c_diameter\[3\]:R:1:angles:R:1:forces:R:3:torques:R:3 separation_distance=2.4 energy=-0.12420593957784308 pbc="F F F"
X       10.00000000      10.00000000      10.00000000       0.86602540       0.00000000       0.00000000       0.50000000       1.00000000       2.00000000       1.00000000       1.04719755       0.39024977      -0.06823881       0.00000000      -0.00000000      -0.00000000       0.16504209
X       12.40000000      10.00000000      10.00000000       0.00000000       0.00000000       0.00000000       1.00000000       1.00000000       2.00000000       1.00000000       3.14159265      -0.39024977       0.06823881      -0.00000000      -0.00000000      -0.00000000      -0.00295317
2
Lattice="20.0 0.0 0.0 0.0 20.0 0.0 0.0 0.0 20.0" Properties=species:S:1:pos:R:3:quaternions:R:4:c_diameter\[1\]:R:1:c_diameter\[2\]:R:1:c_diameter\[3\]:R:1:angles:R:1:forces:R:3:torques:R:3 separation_distance=2.4 energy=-0.17925714468385764 pbc="F F F"
X       10.00000000      10.00000000      10.00000000       0.76604444       0.00000000       0.00000000       0.64278761       1.00000000       2.00000000       1.00000000       1.39626340       0.63019441      -0.04319742       0.00000000      -0.00000000      -0.00000000       0.10785336
X       12.40000000      10.00000000      10.00000000       1.00000000       0.00000000       0.00000000       0.00000000       1.00000000       2.00000000       1.00000000       0.00000000      -0.63019441       0.04319742      -0.00000000      -0.00000000      -0.00000000      -0.00759158
2
Lattice="20.0 0.0 0.0 0.0 20.0 0.0 0.0 0.0 20.0" Properties=species:S:1:pos:R:3:quaternions:R:4:c_diameter\[1\]:R:1:c_diameter\[2\]:R:1:c_diameter\[3\]:R:1:angles:R:1:forces:R:3:torques:R:3 separation_distance=2.4 energy=-0.2129661875410438 pbc="F F F"
X       10.00000000      10.00000000      10.00000000       0.76604444       0.00000000       0.00000000       0.64278761       1.00000000       2.00000000       1.00000000       1.39626340       0.74360887      -0.15024903       0.00000000      -0.00000000      -0.00000000       0.14378666
X       12.40000000      10.00000000      10.00000000       0.98480775       0.00000000       0.00000000       0.17364818       1.00000000       2.00000000       1.00000000       0.34906585      -0.74360887       0.15024903      -0.00000000      -0.00000000      -0.00000000       0.21466027
2
Lattice="20.0 0.0 0.0 0.0 20.0 0.0 0.0 0.0 20.0" Properties=species:S:1:pos:R:3:quaternions:R:4:c_diameter\[1\]:R:1:c_diameter\[2\]:R:1:c_diameter\[3\]:R:1:angles:R:1:forces:R:3:torques:R:3 separation_distance=2.4 energy=-0.34795066414676834 pbc="F F F"
X       10.00000000      10.00000000      10.00000000       0.76604444       0.00000000       0.00000000       0.64278761       1.00000000       2.00000000       1.00000000       1.39626340       1.26106854      -0.38014494       0.00000000      -0.00000000      -0.00000000       0.29026721
X       12.40000000      10.00000000      10.00000000       0.93969262       0.00000000       0.00000000       0.34202014       1.00000000       2.00000000       1.00000000       0.69813170      -1.26106854       0.38014494      -0.00000000      -0.00000000      -0.00000000       0.61971078
2
Lattice="20.0 0.0 0.0 0.0 20.0 0.0 0.0 0.0 20.0" Properties=species:S:1:pos:R:3:quaternions:R:4:c_diameter\[1\]:R:1:c_diameter\[2\]:R:1:c_diameter\[3\]:R:1:angles:R:1:forces:R:3:torques:R:3 separation_distance=2.4 energy=-0.6967408910285066 pbc="F F F"
X       10.00000000      10.00000000      10.00000000       0.76604444       0.00000000       0.00000000       0.64278761       1.00000000       2.00000000       1.00000000       1.39626340       2.77981800      -0.95219761       0.00000000      -0.00000000      -0.00000000       0.77942005
X       12.40000000      10.00000000      10.00000000       0.86602540       0.00000000       0.00000000       0.50000000       1.00000000       2.00000000       1.00000000       1.04719755      -2.77981800       0.95219761      -0.00000000      -0.00000000      -0.00000000       1.47989587
2
Lattice="20.0 0.0 0.0 0.0 20.0 0.0 0.0 0.0 20.0" Properties=species:S:1:pos:R:3:quaternions:R:4:c_diameter\[1\]:R:1:c_diameter\[2\]:R:1:c_diameter\[3\]:R:1:angles:R:1:forces:R:3:torques:R:3 separation_distance=2.4 energy=-1.3458738850149237 pbc="F F F"
X       10.00000000      10.00000000      10.00000000       0.76604444       0.00000000       0.00000000       0.64278761       1.00000000       2.00000000       1.00000000       1.39626340       6.10898662      -1.50585939       0.00000000      -0.00000000      -0.00000000       1.72867246
X       12.40000000      10.00000000      10.00000000       0.76604444       0.00000000       0.00000000       0.64278761       1.00000000       2.00000000       1.00000000       1.39626340      -6.10898662       1.50585939      -0.00000000      -0.00000000      -0.00000000       1.72867246
2
Lattice="20.0 0.0 0.0 0.0 20.0 0.0 0.0 0.0 20.0" Properties=species:S:1:pos:R:3:quaternions:R:4:c_diameter\[1\]:R:1:c_diameter\[2\]:R:1:c_diameter\[3\]:R:1:angles:R:1:forces:R:3:torques:R:3 separation_distance=2.4 energy=-1.447910344557215 pbc="F F F"
X       10.00000000      10.00000000      10.00000000       0.76604444       0.00000000       0.00000000       0.64278761       1.00000000       2.00000000       1.00000000       1.39626340       6.85577206       0.00000000       0.00000000      -0.00000000      -0.00000000       1.37015156
X       12.40000000      10.00000000      10.00000000       0.64278761       0.00000000       0.00000000       0.76604444       1.00000000       2.00000000       1.00000000       1.74532925      -6.85577206      -0.00000000      -0.00000000      -0.00000000      -0.00000000      -1.37015156
2
Lattice="20.0 0.0 0.0 0.0 20.0 0.0 0.0 0.0 20.0" Properties=species:S:1:pos:R:3:quaternions:R:4:c_diameter\[1\]:R:1:c_diameter\[2\]:R:1:c_diameter\[3\]:R:1:angles:R:1:forces:R:3:torques:R:3 separation_distance=2.4 energy=-0.783897013089477 pbc="F F F"
X       10.00000000      10.00000000      10.00000000       0.76604444       0.00000000       0.00000000       0.64278761       1.00000000       2.00000000       1.00000000       1.39626340       3.43138871       0.51569376       0.00000000      -0.00000000      -0.00000000       0.45128853
X       12.40000000      10.00000000      10.00000000       0.50000000       0.00000000       0.00000000       0.86602540       1.00000000       2.00000000       1.00000000       2.09439510      -3.43138871      -0.51569376      -0.00000000      -0.00000000      -0.00000000      -1.69999434
2
Lattice="20.0 0.0 0.0 0.0 20.0 0.0 0.0 0.0 20.0" Properties=species:S:1:pos:R:3:quaternions:R:4:c_diameter\[1\]:R:1:c_diameter\[2\]:R:1:c_diameter\[3\]:R:1:angles:R:1:forces:R:3:torques:R:3 separation_distance=2.4 energy=-0.3750752256093174 pbc="F F F"
X       10.00000000      10.00000000      10.00000000       0.76604444       0.00000000       0.00000000       0.64278761       1.00000000       2.00000000       1.00000000       1.39626340       1.48157200       0.21689379       0.00000000      -0.00000000      -0.00000000       0.18793905
X       12.40000000      10.00000000      10.00000000       0.34202014       0.00000000       0.00000000       0.93969262       1.00000000       2.00000000       1.00000000       2.44346095      -1.48157200      -0.21689379      -0.00000000      -0.00000000      -0.00000000      -0.72286190
2
Lattice="20.0 0.0 0.0 0.0 20.0 0.0 0.0 0.0 20.0" Properties=species:S:1:pos:R:3:quaternions:R:4:c_diameter\[1\]:R:1:c_diameter\[2\]:R:1:c_diameter\[3\]:R:1:angles:R:1:forces:R:3:torques:R:3 separation_distance=2.4 energy=-0.219757764215454 pbc="F F F"
X       10.00000000      10.00000000      10.00000000       0.76604444       0.00000000       0.00000000       0.64278761       1.00000000       2.00000000       1.00000000       1.39626340       0.80528882       0.04951232       0.00000000      -0.00000000      -0.00000000       0.11957233
X       12.40000000      10.00000000      10.00000000       0.17364818       0.00000000       0.00000000       0.98480775       1.00000000       2.00000000       1.00000000       2.79252680      -0.80528882      -0.04951232      -0.00000000      -0.00000000      -0.00000000      -0.24496647
2
Lattice="20.0 0.0 0.0 0.0 20.0 0.0 0.0 0.0 20.0" Properties=species:S:1:pos:R:3:quaternions:R:4:c_diameter\[1\]:R:1:c_diameter\[2\]:R:1:c_diameter\[3\]:R:1:angles:R:1:forces:R:3:torques:R:3 separation_distance=2.4 energy=-0.17925714468385756 pbc="F F F"
X       10.00000000      10.00000000      10.00000000       0.76604444       0.00000000       0.00000000       0.64278761       1.00000000       2.00000000       1.00000000       1.39626340       0.63019441      -0.04319742       0.00000000      -0.00000000      -0.00000000       0.10785336
X       12.40000000      10.00000000      10.00000000       0.00000000       0.00000000       0.00000000       1.00000000       1.00000000       2.00000000       1.00000000       3.14159265      -0.63019441       0.04319742      -0.00000000      -0.00000000      -0.00000000      -0.00759158
2
Lattice="20.0 0.0 0.0 0.0 20.0 0.0 0.0 0.0 20.0" Properties=species:S:1:pos:R:3:quaternions:R:4:c_diameter\[1\]:R:1:c_diameter\[2\]:R:1:c_diameter\[3\]:R:1:angles:R:1:forces:R:3:torques:R:3 separation_distance=2.4 energy=-0.17925714468385764 pbc="F F F"
X       10.00000000      10.00000000      10.00000000       0.64278761       0.00000000       0.00000000       0.76604444       1.00000000       2.00000000       1.00000000       1.74532925       0.63019441       0.04319742       0.00000000      -0.00000000      -0.00000000      -0.10785336
X       12.40000000      10.00000000      10.00000000       1.00000000       0.00000000       0.00000000       0.00000000       1.00000000       2.00000000       1.00000000       0.00000000      -0.63019441      -0.04319742      -0.00000000      -0.00000000      -0.00000000       0.00759158
2
Lattice="20.0 0.0 0.0 0.0 20.0 0.0 0.0 0.0 20.0" Properties=species:S:1:pos:R:3:quaternions:R:4:c_diameter\[1\]:R:1:c_diameter\[2\]:R:1:c_diameter\[3\]:R:1:angles:R:1:forces:R:3:torques:R:3 separation_distance=2.4 energy=-0.219757764215454 pbc="F F F"
X       10.00000000      10.00000000      10.00000000       0.64278761       0.00000000       0.00000000       0.76604444       1.00000000       2.00000000       1.00000000       1.74532925       0.80528882      -0.04951232       0.00000000      -0.00000000      -0.00000000      -0.11957233
X       12.40000000      10.00000000      10.00000000       0.98480775       0.00000000       0.00000000       0.17364818       1.00000000       2.00000000       1.00000000       0.34906585      -0.80528882       0.04951232      -0.00000000      -0.00000000      -0.00000000       0.24496647
2
Lattice="20.0 0.0 0.0 0.0 20.0 0.0 0.0 0.0 20.0" Properties=species:S:1:pos:R:3:quaternions:R:4:c_diameter\[1\]:R:1:c_diameter\[2\]:R:1:c_diameter\[3\]:R:1:angles:R:1:forces:R:3:torques:R:3 separation_distance=2.4 energy=-0.3750752256093172 pbc="F F F"
X       10.00000000      10.00000000      10.00000000       0.64278761       0.00000000       0.00000000       0.76604444       1.00000000       2.00000000       1.00000000       1.74532925       1.48157200      -0.21689379       0.00000000      -0.00000000      -0.00000000      -0.18793905
X       12.40000000      10.00000000      10.00000000       0.93969262       0.00000000       0.00000000       0.34202014       1.00000000       2.00000000       1.00000000       0.69813170      -1.48157200       0.21689379      -0.00000000      -0.00000000      -0.00000000       0.72286190
2
Lattice="20.0 0.0 0.0 0.0 20.0 0.0 0.0 0.0 20.0" Properties=species:S:1:pos:R:3:quaternions:R:4:c_diameter\[1\]:R:1:c_diameter\[2\]:R:1:c_diameter\[3\]:R:1:angles:R:1:forces:R:3:torques:R:3 separation_distance=2.4 energy=-0.7838970130894752 pbc="F F F"
X       10.00000000      10.00000000      10.00000000       0.64278761       0.00000000       0.00000000       0.76604444       1.00000000       2.00000000       1.00000000       1.74532925       3.43138871      -0.51569376       0.00000000      -0.00000000      -0.00000000      -0.45128853
X       12.40000000      10.00000000      10.00000000       0.86602540       0.00000000       0.00000000       0.50000000       1.00000000       2.00000000       1.00000000       1.04719755      -3.43138871       0.51569376      -0.00000000      -0.00000000      -0.00000000       1.69999434
2
Lattice="20.0 0.0 0.0 0.0 20.0 0.0 0.0 0.0 20.0" Properties=species:S:1:pos:R:3:quaternions:R:4:c_diameter\[1\]:R:1:c_diameter\[2\]:R:1:c_diameter\[3\]:R:1:angles:R:1:forces:R:3:torques:R:3 separation_distance=2.4 energy=-1.447910344557215 pbc="F F F"
X       10.00000000      10.00000000      10.00000000       0.64278761       0.00000000       0.00000000       0.76604444       1.00000000       2.00000000       1.00000000       1.74532925       6.85577206       0.00000000       0.00000000      -0.00000000      -0.00000000      -1.37015156
X       12.40000000      10.00000000      10.00000000       0.76604444       0.00000000       0.00000000       0.64278761       1.00000000       2.00000000       1.00000000       1.39626340      -6.85577206      -0.00000000      -0.00000000      -0.00000000      -0.00000000       1.37015156
2
Lattice="20.0 0.0 0.0 0.0 20.0 0.0 0.0 0.0 20.0" Properties=species:S:1:pos:R:3:quaternions:R:4:c_diameter\[1\]:R:1:c_diameter\[2\]:R:1:c_diameter\[3\]:R:1:angles:R:1:forces:R:3:torques:R:3 separation_distance=2.4 energy=-1.3458738850149237 pbc="F F F"
X       10.00000000      10.00000000      10.00000000       0.64278761       0.00000000       0.00000000       0.76604444       1.00000000       2.00000000       1.00000000       1.74532925       6.10898662       1.50585939       0.00000000      -0.00000000      -0.00000000      -1.72867246
X       12.40000000      10.00000000      10.00000000       0.64278761       0.00000000       0.00000000       0.76604444       1.00000000       2.00000000       1.00000000       1.74532925      -6.10898662      -1.50585939      -0.00000000      -0.00000000      -0.00000000      -1.72867246
2
Lattice="20.0 0.0 0.0 0.0 20.0 0.0 0.0 0.0 20.0" Properties=species:S:1:pos:R:3:quaternions:R:4:c_diameter\[1\]:R:1:c_diameter\[2\]:R:1:c_diameter\[3\]:R:1:angles:R:1:forces:R:3:torques:R:3 separation_distance=2.4 energy=-0.6967408910285071 pbc="F F F"
X       10.00000000      10.00000000      10.00000000       0.64278761       0.00000000       0.00000000       0.76604444       1.00000000       2.00000000       1.00000000       1.74532925       2.77981800       0.95219761       0.00000000      -0.00000000      -0.00000000      -0.77942005
X       12.40000000      10.00000000      10.00000000       0.50000000       0.00000000       0.00000000       0.86602540       1.00000000       2.00000000       1.00000000       2.09439510      -2.77981800      -0.95219761      -0.00000000      -0.00000000      -0.00000000      -1.47989587
2
Lattice="20.0 0.0 0.0 0.0 20.0 0.0 0.0 0.0 20.0" Properties=species:S:1:pos:R:3:quaternions:R:4:c_diameter\[1\]:R:1:c_diameter\[2\]:R:1:c_diameter\[3\]:R:1:angles:R:1:forces:R:3:torques:R:3 separation_distance=2.4 energy=-0.3479506641467689 pbc="F F F"
X       10.00000000      10.00000000      10.00000000       0.64278761       0.00000000       0.00000000       0.76604444       1.00000000       2.00000000       1.00000000       1.74532925       1.26106854       0.38014494       0.00000000      -0.00000000      -0.00000000      -0.29026721
X       12.40000000      10.00000000      10.00000000       0.34202014       0.00000000       0.00000000       0.93969262       1.00000000       2.00000000       1.00000000       2.44346095      -1.26106854      -0.38014494      -0.00000000      -0.00000000      -0.00000000      -0.61971078
2
Lattice="20.0 0.0 0.0 0.0 20.0 0.0 0.0 0.0 20.0" Properties=species:S:1:pos:R:3:quaternions:R:4:c_diameter\[1\]:R:1:c_diameter\[2\]:R:1:c_diameter\[3\]:R:1:angles:R:1:forces:R:3:torques:R:3 separation_distance=2.4 energy=-0.21296618754104402 pbc="F F F"
X       10.00000000      10.00000000      10.00000000       0.64278761       0.00000000       0.00000000       0.76604444       1.00000000       2.00000000       1.00000000       1.74532925       0.74360887       0.15024903       0.00000000      -0.00000000      -0.00000000      -0.14378666
X       12.40000000      10.00000000      10.00000000       0.17364818       0.00000000       0.00000000       0.98480775       1.00000000       2.00000000       1.00000000       2.79252680      -0.74360887      -0.15024903      -0.00000000      -0.00000000      -0.00000000      -0.21466027
2
Lattice="20.0 0.0 0.0 0.0 20.0 0.0 0.0 0.0 20.0" Properties=species:S:1:pos:R:3:quaternions:R:4:c_diameter\[1\]:R:1:c_diameter\[2\]:R:1:c_diameter\[3\]:R:1:angles:R:1:forces:R:3:torques:R:3 separation_distance=2.4 energy=-0.17925714468385764 pbc="F F F"
X       10.00000000      10.00000000      10.00000000       0.64278761       0.00000000       0.00000000       0.76604444       1.00000000       2.00000000       1.00000000       1.74532925       0.63019441       0.04319742       0.00000000      -0.00000000      -0.00000000      -0.10785336
X       12.40000000      10.00000000      10.00000000       0.00000000       0.00000000       0.00000000       1.00000000       1.00000000       2.00000000       1.00000000       3.14159265      -0.63019441      -0.04319742      -0.00000000      -0.00000000      -0.00000000       0.00759158
2
Lattice="20.0 0.0 0.0 0.0 20.0 0.0 0.0 0.0 20.0" Properties=species:S:1:pos:R:3:quaternions:R:4:c_diameter\[1\]:R:1:c_diameter\[2\]:R:1:c_diameter\[3\]:R:1:angles:R:1:forces:R:3:torques:R:3 separation_distance=2.4 energy=-0.12420593957784308 pbc="F F F"
X       10.00000000      10.00000000      10.00000000       0.50000000       0.00000000       0.00000000       0.86602540       1.00000000       2.00000000       1.00000000       2.09439510       0.39024977       0.06823881       0.00000000      -0.00000000      -0.00000000      -0.16504209
X       12.40000000      10.00000000      10.00000000       1.00000000       0.00000000       0.00000000       0.00000000       1.00000000       2.00000000       1.00000000       0.00000000      -0.39024977      -0.06823881      -0.00000000      -0.00000000      -0.00000000       0.00295317
2
Lattice="20.0 0.0 0.0 0.0 20.0 0.0 0.0 0.0 20.0" Properties=species:S:1:pos:R:3:quaternions:R:4:c_diameter\[1\]:R:1:c_diameter\[2\]:R:1:c_diameter\[3\]:R:1:angles:R:1:forces:R:3:torques:R:3 separation_distance=2.4 energy=-0.15118347019359216 pbc="F F F"
X       10.00000000      10.00000000      10.00000000       0.50000000       0.00000000       0.00000000       0.86602540       1.00000000       2.00000000       1.00000000       2.09439510       0.51412121       0.02284431       0.00000000      -0.00000000      -0.00000000      -0.21494163
X       12.40000000      10.00000000      10.00000000       0.98480775       0.00000000       0.00000000       0.17364818       1.00000000       2.00000000       1.00000000       0.34906585      -0.51412121      -0.02284431      -0.00000000      -0.00000000      -0.00000000       0.16433749
2
Lattice="20.0 0.0 0.0 0.0 20.0 0.0 0.0 0.0 20.0" Properties=species:S:1:pos:R:3:quaternions:R:4:c_diameter\[1\]:R:1:c_diameter\[2\]:R:1:c_diameter\[3\]:R:1:angles:R:1:forces:R:3:torques:R:3 separation_distance=2.4 energy=-0.25293954982302613 pbc="F F F"
X       10.00000000      10.00000000      10.00000000       0.50000000       0.00000000       0.00000000       0.86602540       1.00000000       2.00000000       1.00000000       2.09439510       0.95461704      -0.02364599       0.00000000      -0.00000000      -0.00000000      -0.39229610
X       12.40000000      10.00000000      10.00000000       0.93969262       0.00000000       0.00000000       0.34202014       1.00000000       2.00000000       1.00000000       0.69813170      -0.95461704       0.02364599      -0.00000000      -0.00000000      -0.00000000       0.45745062
2
Lattice="20.0 0.0 0.0 0.0 20.0 0.0 0.0 0.0 20.0" Properties=species:S:1:pos:R:3:quaternions:R:4:c_diameter\[1\]:R:1:c_diameter\[2\]:R:1:c_diameter\[3\]:R:1:angles:R:1:forces:R:3:torques:R:3 separation_distance=2.4 energy=-0.4907637885506161 pbc="F F F"
X       10.00000000      10.00000000      10.00000000       0.50000000       0.00000000       0.00000000       0.86602540       1.00000000       2.00000000       1.00000000       2.09439510       2.05878534       0.00000000       0.00000000      -0.00000000      -0.00000000      -0.89317074
X       12.40000000      10.00000000      10.00000000       0.86602540       0.00000000       0.00000000       0.50000000       1.00000000       2.00000000       1.00000000       1.04719755      -2.05878534      -0.00000000      -0.00000000      -0.00000000      -0.00000000       0.89317074
2
Lattice="20.0 0.0 0.0 0.0 20.0 0.0 0.0 0.0 20.0" Properties=species:S:1:pos:R:3:quaternions:R:4:c_diameter\[1\]:R:1:c_diameter\[2\]:R:1:c_diameter\[3\]:R:1:angles:R:1:forces:R:3:torques:R:3 separation_distance=2.4 energy=-0.783897013089477 pbc="F F F"
X       10.00000000      10.00000000      10.00000000       0.50000000       0.00000000       0.00000000       0.86602540       1.00000000       2.00000000       1.00000000       2.09439510       3.43138871       0.51569376       0.00000000      -0.00000000      -0.00000000      -1.69999434
X       12.40000000      10.00000000      10.00000000       0.76604444       0.00000000       0.00000000       0.64278761       1.00000000       2.00000000       1.00000000       1.39626340      -3.43138871      -0.51569376      -0.00000000      -0.00000000      -0.00000000       0.45128853
2
Lattice="20.0 0.0 0.0 0.0 20.0 0.0 0.0 0.0 20.0" Properties=species:S:1:pos:R:3:quaternions:R:4:c_diameter\[1\]:R:1:c_diameter\[2\]:R:1:c_diameter\[3\]:R:1:angles:R:1:forces:R:3:torques:R:3 separation_distance=2.4 energy=-0.6967408910285071 pbc="F F F"
X       10.00000000      10.00000000      10.00000000       0.50000000       0.00000000       0.00000000       0.86602540       1.00000000       2.00000000       1.00000000       2.09439510       2.77981800       0.95219761       0.00000000      -0.00000000      -0.00000000      -1.47989587
X       12.40000000      10.00000000      10.00000000       0.64278761       0.00000000       0.00000000       0.76604444       1.00000000       2.00000000       1.00000000       1.74532925      -2.77981800      -0.95219761      -0.00000000      -0.00000000      -0.00000000      -0.77942005
2
Lattice="20.0 0.0 0.0 0.0 20.0 0.0 0.0 0.0 20.0" Properties=species:S:1:pos:R:3:quaternions:R:4:c_diameter\[1\]:R:1:c_diameter\[2\]:R:1:c_diameter\[3\]:R:1:angles:R:1:forces:R:3:torques:R:3 separation_distance=2.4 energy=-0.4090170208649657 pbc="F F F"
X       10.00000000      10.00000000      10.00000000       0.50000000       0.00000000       0.00000000       0.86602540       1.00000000       2.00000000       1.00000000       2.09439510       1.38944164       0.57838364       0.00000000      -0.00000000      -0.00000000      -0.69339934
X       12.40000000      10.00000000      10.00000000       0.50000000       0.00000000       0.00000000       0.86602540       1.00000000       2.00000000       1.00000000       2.09439510      -1.38944164      -0.57838364      -0.00000000      -0.00000000      -0.00000000      -0.69339934
2
Lattice="20.0 0.0 0.0 0.0 20.0 0.0 0.0 0.0 20.0" Properties=species:S:1:pos:R:3:quaternions:R:4:c_diameter\[1\]:R:1:c_diameter\[2\]:R:1:c_diameter\[3\]:R:1:angles:R:1:forces:R:3:torques:R:3 separation_distance=2.4 energy=-0.23050887420476143 pbc="F F F"
X       10.00000000      10.00000000      10.00000000       0.50000000       0.00000000       0.00000000       0.86602540       1.00000000       2.00000000       1.00000000       2.09439510       0.70737874       0.27604500       0.00000000      -0.00000000      -0.00000000      -0.31000850
X       12.40000000      10.00000000      10.00000000       0.34202014       0.00000000       0.00000000       0.93969262       1.00000000       2.00000000       1.00000000       2.44346095      -0.70737874      -0.27604500      -0.00000000      -0.00000000      -0.00000000      -0.35345990
2
Lattice="20.0 0.0 0.0 0.0 20.0 0.0 0.0 0.0 20.0" Properties=species:S:1:pos:R:3:quaternions:R:4:c_diameter\[1\]:R:1:c_diameter\[2\]:R:1:c_diameter\[3\]:R:1:angles:R:1:forces:R:3:torques:R:3 separation_distance=2.4 energy=-0.1475521440142199 pbc="F F F"
X       10.00000000      10.00000000      10.00000000       0.50000000       0.00000000       0.00000000       0.86602540       1.00000000       2.00000000       1.00000000       2.09439510       0.44489414       0.13650515       0.00000000      -0.00000000      -0.00000000      -0.18521856
X       12.40000000      10.00000000      10.00000000       0.17364818       0.00000000       0.00000000       0.98480775       1.00000000       2.00000000       1.00000000       2.79252680      -0.44489414      -0.13650515      -0.00000000      -0.00000000      -0.00000000      -0.14213978
2
Lattice="20.0 0.0 0.0 0.0 20.0 0.0 0.0 0.0 20.0" Properties=species:S:1:pos:R:3:quaternions:R:4:c_diameter\[1\]:R:1:c_diameter\[2\]:R:1:c_diameter\[3\]:R:1:angles:R:1:forces:R:3:torques:R:3 separation_distance=2.4 energy=-0.12420593957784312 pbc="F F F"
X       10.00000000      10.00000000      10.00000000       0.50000000       0.00000000       0.00000000       0.86602540       1.00000000       2.00000000       1.00000000       2.09439510       0.39024977       0.06823881       0.00000000      -0.00000000      -0.00000000      -0.16504209
X       12.40000000      10.00000000      10.00000000       0.00000000       0.00000000       0.00000000       1.00000000       1.00000000       2.00000000       1.00000000       3.14159265      -0.39024977      -0.06823881      -0.00000000      -0.00000000      -0.00000000       0.00295317
2
Lattice="20.0 0.0 0.0 0.0 20.0 0.0 0.0 0.0 20.0" Properties=species:S:1:pos:R:3:quaternions:R:4:c_diameter\[1\]:R:1:c_diameter\[2\]:R:1:c_diameter\[3\]:R:1:angles:R:1:forces:R:3:torques:R:3 separation_distance=2.4 energy=-0.07650291257784261 pbc="F F F"
X       10.00000000      10.00000000      10.00000000       0.34202014       0.00000000       0.00000000       0.93969262       1.00000000       2.00000000       1.00000000       2.44346095       0.20696854       0.04654718       0.00000000      -0.00000000      -0.00000000      -0.10351632
X       12.40000000      10.00000000      10.00000000       1.00000000       0.00000000       0.00000000       0.00000000       1.00000000       2.00000000       1.00000000       0.00000000      -0.20696854      -0.04654718      -0.00000000      -0.00000000      -0.00000000      -0.00837707
2
Lattice="20.0 0.0 0.0 0.0 20.0 0.0 0.0 0.0 20.0" Properties=species:S:1:pos:R:3:quaternions:R:4:c_diameter\[1\]:R:1:c_diameter\[2\]:R:1:c_diameter\[3\]:R:1:angles:R:1:forces:R:3:torques:R:3 separation_distance=2.4 energy=-0.0891229995378035 pbc="F F F"
X       10.00000000      10.00000000      10.00000000       0.34202014       0.00000000       0.00000000       0.93969262       1.00000000       2.00000000       1.00000000       2.44346095       0.26489010       0.01919779       0.00000000      -0.00000000      -0.00000000      -0.13128945
X       12.40000000      10.00000000      10.00000000       0.98480775       0.00000000       0.00000000       0.17364818       1.00000000       2.00000000       1.00000000       0.34906585      -0.26489010      -0.01919779      -0.00000000      -0.00000000      -0.00000000       0.08558198
2
Lattice="20.0 0.0 0.0 0.0 20.0 0.0 0.0 0.0 20.0" Properties=species:S:1:pos:R:3:quaternions:R:4:c_diameter\[1\]:R:1:c_diameter\[2\]:R:1:c_diameter\[3\]:R:1:angles:R:1:forces:R:3:torques:R:3 separation_distance=2.4 energy=-0.14158716007235847 pbc="F F F"
X       10.00000000      10.00000000      10.00000000       0.34202014       0.00000000       0.00000000       0.93969262       1.00000000       2.00000000       1.00000000       2.44346095       0.47555834       0.00000000       0.00000000      -0.00000000      -0.00000000      -0.22846198
X       12.40000000      10.00000000      10.00000000       0.93969262       0.00000000       0.00000000       0.34202014       1.00000000       2.00000000       1.00000000       0.69813170      -0.47555834      -0.00000000      -0.00000000      -0.00000000      -0.00000000       0.22846198
2
Lattice="20.0 0.0 0.0 0.0 20.0 0.0 0.0 0.0 20.0" Properties=species:S:1:pos:R:3:quaternions:R:4:c_diameter\[1\]:R:1:c_diameter\[2\]:R:1:c_diameter\[3\]:R:1:angles:R:1:forces:R:3:torques:R:3 separation_distance=2.4 energy=-0.252939549823026 pbc="F F F"
X       10.00000000      10.00000000      10.00000000       0.34202014       0.00000000       0.00000000       0.93969262       1.00000000       2.00000000       1.00000000       2.44346095       0.95461704       0.02364599       0.00000000      -0.00000000      -0.00000000      -0.45745062
X       12.40000000      10.00000000      10.00000000       0.86602540       0.00000000       0.00000000       0.50000000       1.00000000       2.00000000       1.00000000       1.04719755      -0.95461704      -0.02364599      -0.00000000      -0.00000000      -0.00000000       0.39229610
2
Lattice="20.0 0.0 0.0 0.0 20.0 0.0 0.0 0.0 20.0" Properties=species:S:1:pos:R:3:quaternions:R:4:c_diameter\[1\]:R:1:c_diameter\[2\]:R:1:c_diameter\[3\]:R:1:angles:R:1:forces:R:3:torques:R:3 separation_distance=2.4 energy=-0.3750752256093174 pbc="F F F"
X       10.00000000      10.00000000      10.00000000       0.34202014       0.00000000       0.00000000       0.93969262       1.00000000       2.00000000       1.00000000       2.44346095       1.48157200       0.21689379       0.00000000      -0.00000000      -0.00000000      -0.72286190
X       12.40000000      10.00000000      10.00000000       0.76604444       0.00000000       0.00000000       0.64278761       1.00000000       2.00000000       1.00000000       1.39626340      -1.48157200      -0.21689379      -0.00000000      -0.00000000      -0.00000000       0.18793905
2
Lattice="20.0 0.0 0.0 0.0 20.0 0.0 0.0 0.0 20.0" Properties=species:S:1:pos:R:3:quaternions:R:4:c_diameter\[1\]:R:1:c_diameter\[2\]:R:1:c_diameter\[3\]:R:1:angles:R:1:forces:R:3:torques:R:3 separation_distance=2.4 energy=-0.3479506641467689 pbc="F F F"
X       10.00000000      10.00000000      10.00000000       0.34202014       0.00000000       0.00000000       0.93969262       1.00000000       2.00000000       1.00000000       2.44346095       1.26106854       0.38014494       0.00000000      -0.00000000      -0.00000000      -0.61971078
X       12.40000000      10.00000000      10.00000000       0.64278761       0.00000000       0.00000000       0.76604444       1.00000000       2.00000000       1.00000000       1.74532925      -1.26106854      -0.38014494      -0.00000000      -0.00000000      -0.00000000      -0.29026721
2
Lattice="20.0 0.0 0.0 0.0 20.0 0.0 0.0 0.0 20.0" Properties=species:S:1:pos:R:3:quaternions:R:4:c_diameter\[1\]:R:1:c_diameter\[2\]:R:1:c_diameter\[3\]:R:1:angles:R:1:forces:R:3:torques:R:3 separation_distance=2.4 energy=-0.23050887420476143 pbc="F F F"
X       10.00000000      10.00000000      10.00000000       0.34202014       0.00000000       0.00000000       0.93969262       1.00000000       2.00000000       1.00000000       2.44346095       0.70737874       0.27604500       0.00000000      -0.00000000      -0.00000000      -0.35345990
X       12.40000000      10.00000000      10.00000000       0.50000000       0.00000000       0.00000000       0.86602540       1.00000000       2.00000000       1.00000000       2.09439510      -0.70737874      -0.27604500      -0.00000000      -0.00000000      -0.00000000      -0.31000850
2
Lattice="20.0 0.0 0.0 0.0 20.0 0.0 0.0 0.0 20.0" Properties=species:S:1:pos:R:3:quaternions:R:4:c_diameter\[1\]:R:1:c_diameter\[2\]:R:1:c_diameter\[3\]:R:1:angles:R:1:forces:R:3:torques:R:3 separation_distance=2.4 energy=-0.14355601893782927 pbc="F F F"
X       10.00000000      10.00000000      10.00000000       0.34202014       0.00000000       0.00000000       0.93969262       1.00000000       2.00000000       1.00000000       2.44346095       0.38722840       0.15886010       0.00000000      -0.00000000      -0.00000000      -0.19103962
X       12.40000000      10.00000000      10.00000000       0.34202014       0.00000000       0.00000000       0.93969262       1.00000000       2.00000000       1.00000000       2.44346095      -0.38722840      -0.15886010      -0.00000000      -0.00000000      -0.00000000      -0.19103962
2
Lattice="20.0 0.0 0.0 0.0 20.0 0.0 0.0 0.0 20.0" Properties=species:S:1:pos:R:3:quaternions:R:4:c_diameter\[1\]:R:1:c_diameter\[2\]:R:1:c_diameter\[3\]:R:1:angles:R:1:forces:R:3:torques:R:3 separation_distance=2.4 energy=-0.09428641828356363 pbc="F F F"
X       10.00000000      10.00000000      10.00000000       0.34202014       0.00000000       0.00000000       0.93969262       1.00000000       2.00000000       1.00000000       2.44346095       0.24473217       0.08864099       0.00000000      -0.00000000      -0.00000000      -0.11866537
X       12.40000000      10.00000000      10.00000000       0.17364818       0.00000000       0.00000000       0.98480775       1.00000000       2.00000000       1.00000000       2.79252680      -0.24473217      -0.08864099      -0.00000000      -0.00000000      -0.00000000      -0.09449405
2
Lattice="20.0 0.0 0.0 0.0 20.0 0.0 0.0 0.0 20.0" Properties=species:S:1:pos:R:3:quaternions:R:4:c_diameter\[1\]:R:1:c_diameter\[2\]:R:1:c_diameter\[3\]:R:1:angles:R:1:forces:R:3:torques:R:3 separation_distance=2.4 energy=-0.07650291257784261 pbc="F F F"
X       10.00000000      10.00000000      10.00000000       0.34202014       0.00000000       0.00000000       0.93969262       1.00000000       2.00000000       1.00000000       2.44346095       0.20696854       0.04654718       0.00000000      -0.00000000      -0.00000000      -0.10351632
X       12.40000000      10.00000000      10.00000000       0.00000000       0.00000000       0.00000000       1.00000000       1.00000000       2.00000000       1.00000000       3.14159265      -0.20696854      -0.04654718      -0.00000000      -0.00000000      -0.00000000      -0.00837707
2
Lattice="20.0 0.0 0.0 0.0 20.0 0.0 0.0 0.0 20.0" Properties=species:S:1:pos:R:3:quaternions:R:4:c_diameter\[1\]:R:1:c_diameter\[2\]:R:1:c_diameter\[3\]:R:1:angles:R:1:forces:R:3:torques:R:3 separation_distance=2.4 energy=-0.05075105996088375 pbc="F F F"
X       10.00000000      10.00000000      10.00000000       0.17364818       0.00000000       0.00000000       0.98480775       1.00000000       2.00000000       1.00000000       2.79252680       0.12218274       0.02290689       0.00000000      -0.00000000      -0.00000000      -0.04722602
X       12.40000000      10.00000000      10.00000000       1.00000000       0.00000000       0.00000000       0.00000000       1.00000000       2.00000000       1.00000000       0.00000000      -0.12218274      -0.02290689      -0.00000000      -0.00000000      -0.00000000      -0.00781426
2
Lattice="20.0 0.0 0.0 0.0 20.0 0.0 0.0 0.0 20.0" Properties=species:S:1:pos:R:3:quaternions:R:4:c_diameter\[1\]:R:1:c_diameter\[2\]:R:1:c_diameter\[3\]:R:1:angles:R:1:forces:R:3:torques:R:3 separation_distance=2.4 energy=-0.05811157070719721 pbc="F F F"
X       10.00000000      10.00000000      10.00000000       0.17364818       0.00000000       0.00000000       0.98480775       1.00000000       2.00000000       1.00000000       2.79252680       0.15186971       0.00000000       0.00000000      -0.00000000      -0.00000000      -0.05189549
X       12.40000000      10.00000000      10.00000000       0.98480775       0.00000000       0.00000000       0.17364818       1.00000000       2.00000000       1.00000000       0.34906585      -0.15186971      -0.00000000      -0.00000000      -0.00000000      -0.00000000       0.05189549
2
Lattice="20.0 0.0 0.0 0.0 20.0 0.0 0.0 0.0 20.0" Properties=species:S:1:pos:R:3:quaternions:R:4:c_diameter\[1\]:R:1:c_diameter\[2\]:R:1:c_diameter\[3\]:R:1:angles:R:1:forces:R:3:torques:R:3 separation_distance=2.4 energy=-0.08912299953780362 pbc="F F F"
X       10.00000000      10.00000000      10.00000000       0.17364818       0.00000000       0.00000000       0.98480775       1.00000000       2.00000000       1.00000000       2.79252680       0.26489010      -0.01919779       0.00000000      -0.00000000      -0.00000000      -0.08558198
X       12.40000000      10.00000000      10.00000000       0.93969262       0.00000000       0.00000000       0.34202014       1.00000000       2.00000000       1.00000000       0.69813170      -0.26489010       0.01919779      -0.00000000      -0.00000000      -0.00000000       0.13128945
2
Lattice="20.0 0.0 0.0 0.0 20.0 0.0 0.0 0.0 20.0" Properties=species:S:1:pos:R:3:quaternions:R:4:c_diameter\[1\]:R:1:c_diameter\[2\]:R:1:c_diameter\[3\]:R:1:angles:R:1:forces:R:3:torques:R:3 separation_distance=2.4 energy=-0.15118347019359218 pbc="F F F"
X       10.00000000      10.00000000      10.00000000       0.17364818       0.00000000       0.00000000       0.98480775       1.00000000       2.00000000       1.00000000       2.79252680       0.51412121      -0.02284431       0.00000000      -0.00000000      -0.00000000      -0.16433749
X       12.40000000      10.00000000      10.00000000       0.86602540       0.00000000       0.00000000       0.50000000       1.00000000       2.00000000       1.00000000       1.04719755      -0.51412121       0.02284431      -0.00000000      -0.00000000      -0.00000000       0.21494163
2
Lattice="20.0 0.0 0.0 0.0 20.0 0.0 0.0 0.0 20.0" Properties=species:S:1:pos:R:3:quaternions:R:4:c_diameter\[1\]:R:1:c_diameter\[2\]:R:1:c_diameter\[3\]:R:1:angles:R:1:forces:R:3:torques:R:3 separation_distance=2.4 energy=-0.219757764215454 pbc="F F F"
X       10.00000000      10.00000000      10.00000000       0.17364818       0.00000000       0.00000000       0.98480775       1.00000000       2.00000000       1.00000000       2.79252680       0.80528882       0.04951232       0.00000000      -0.00000000      -0.00000000      -0.24496647
X       12.40000000      10.00000000      10.00000000       0.76604444       0.00000000       0.00000000       0.64278761       1.00000000       2.00000000       1.00000000       1.39626340      -0.80528882      -0.04951232      -0.00000000      -0.00000000      -0.00000000       0.11957233
2
Lattice="20.0 0.0 0.0 0.0 20.0 0.0 0.0 0.0 20.0" Properties=species:S:1:pos:R:3:quaternions:R:4:c_diameter\[1\]:R:1:c_diameter\[2\]:R:1:c_diameter\[3\]:R:1:angles:R:1:forces:R:3:torques:R:3 separation_distance=2.4 energy=-0.21296618754104402 pbc="F F F"
X       10.00000000      10.00000000      10.00000000       0.17364818       0.00000000       0.00000000       0.98480775       1.00000000       2.00000000       1.00000000       2.79252680       0.74360887       0.15024903       0.00000000      -0.00000000      -0.00000000      -0.21466027
X       12.40000000      10.00000000      10.00000000       0.64278761       0.00000000       0.00000000       0.76604444       1.00000000       2.00000000       1.00000000       1.74532925      -0.74360887      -0.15024903      -0.00000000      -0.00000000      -0.00000000      -0.14378666
2
Lattice="20.0 0.0 0.0 0.0 20.0 0.0 0.0 0.0 20.0" Properties=species:S:1:pos:R:3:quaternions:R:4:c_diameter\[1\]:R:1:c_diameter\[2\]:R:1:c_diameter\[3\]:R:1:angles:R:1:forces:R:3:torques:R:3 separation_distance=2.4 energy=-0.1475521440142199 pbc="F F F"
X       10.00000000      10.00000000      10.00000000       0.17364818       0.00000000       0.00000000       0.98480775       1.00000000       2.00000000       1.00000000       2.79252680       0.44489414       0.13650515       0.00000000      -0.00000000      -0.00000000      -0.14213978
X       12.40000000      10.00000000      10.00000000       0.50000000       0.00000000       0.00000000       0.86602540       1.00000000       2.00000000       1.00000000       2.09439510      -0.44489414      -0.13650515      -0.00000000      -0.00000000      -0.00000000      -0.18521856
2
Lattice="20.0 0.0 0.0 0.0 20.0 0.0 0.0 0.0 20.0" Properties=species:S:1:pos:R:3:quaternions:R:4:c_diameter\[1\]:R:1:c_diameter\[2\]:R:1:c_diameter\[3\]:R:1:angles:R:1:forces:R:3:torques:R:3 separation_distance=2.4 energy=-0.09428641828356363 pbc="F F F"
X       10.00000000      10.00000000      10.00000000       0.17364818       0.00000000       0.00000000       0.98480775       1.00000000       2.00000000       1.00000000       2.79252680       0.24473217       0.08864099       0.00000000      -0.00000000      -0.00000000      -0.09449405
X       12.40000000      10.00000000      10.00000000       0.34202014       0.00000000       0.00000000       0.93969262       1.00000000       2.00000000       1.00000000       2.44346095      -0.24473217      -0.08864099      -0.00000000      -0.00000000      -0.00000000      -0.11866537
2
Lattice="20.0 0.0 0.0 0.0 20.0 0.0 0.0 0.0 20.0" Properties=species:S:1:pos:R:3:quaternions:R:4:c_diameter\[1\]:R:1:c_diameter\[2\]:R:1:c_diameter\[3\]:R:1:angles:R:1:forces:R:3:torques:R:3 separation_distance=2.4 energy=-0.06307118132535677 pbc="F F F"
X       10.00000000      10.00000000      10.00000000       0.17364818       0.00000000       0.00000000       0.98480775       1.00000000       2.00000000       1.00000000       2.79252680       0.15080717       0.05183876       0.00000000      -0.00000000      -0.00000000      -0.06219869
X       12.40000000      10.00000000      10.00000000       0.17364818       0.00000000       0.00000000       0.98480775       1.00000000       2.00000000       1.00000000       2.79252680      -0.15080717      -0.05183876      -0.00000000      -0.00000000      -0.00000000      -0.06219869
2
Lattice="20.0 0.0 0.0 0.0 20.0 0.0 0.0 0.0 20.0" Properties=species:S:1:pos:R:3:quaternions:R:4:c_diameter\[1\]:R:1:c_diameter\[2\]:R:1:c_diameter\[3\]:R:1:angles:R:1:forces:R:3:torques:R:3 separation_distance=2.4 energy=-0.0507510599608838 pbc="F F F"
X       10.00000000      10.00000000      10.00000000       0.17364818       0.00000000       0.00000000       0.98480775       1.00000000       2.00000000       1.00000000       2.79252680       0.12218274       0.02290689       0.00000000      -0.00000000      -0.00000000      -0.04722602
X       12.40000000      10.00000000      10.00000000       0.00000000       0.00000000       0.00000000       1.00000000       1.00000000       2.00000000       1.00000000       3.14159265      -0.12218274      -0.02290689      -0.00000000      -0.00000000      -0.00000000      -0.00781426
2
Lattice="20.0 0.0 0.0 0.0 20.0 0.0 0.0 0.0 20.0" Properties=species:S:1:pos:R:3:quaternions:R:4:c_diameter\[1\]:R:1:c_diameter\[2\]:R:1:c_diameter\[3\]:R:1:angles:R:1:forces:R:3:torques:R:3 separation_distance=2.4 energy=-0.04258829178032618 pbc="F F F"
X       10.00000000      10.00000000      10.00000000       0.00000000       0.00000000       0.00000000       1.00000000       1.00000000       2.00000000       1.00000000       3.14159265       0.09816444       0.00000000       0.00000000      -0.00000000      -0.00000000      -0.00000000
X       12.40000000      10.00000000      10.00000000       1.00000000       0.00000000       0.00000000       0.00000000       1.00000000       2.00000000       1.00000000       0.00000000      -0.09816444      -0.00000000      -0.00000000      -0.00000000      -0.00000000      -0.00000000
2
Lattice="20.0 0.0 0.0 0.0 20.0 0.0 0.0 0.0 20.0" Properties=species:S:1:pos:R:3:quaternions:R:4:c_diameter\[1\]:R:1:c_diameter\[2\]:R:1:c_diameter\[3\]:R:1:angles:R:1:forces:R:3:torques:R:3 separation_distance=2.4 energy=-0.050751059960883756 pbc="F F F"
X       10.00000000      10.00000000      10.00000000       0.00000000       0.00000000       0.00000000       1.00000000       1.00000000       2.00000000       1.00000000       3.14159265       0.12218274      -0.02290689       0.00000000      -0.00000000      -0.00000000       0.00781426
X       12.40000000      10.00000000      10.00000000       0.98480775       0.00000000       0.00000000       0.17364818       1.00000000       2.00000000       1.00000000       0.34906585      -0.12218274       0.02290689      -0.00000000      -0.00000000      -0.00000000       0.04722602
2
Lattice="20.0 0.0 0.0 0.0 20.0 0.0 0.0 0.0 20.0" Properties=species:S:1:pos:R:3:quaternions:R:4:c_diameter\[1\]:R:1:c_diameter\[2\]:R:1:c_diameter\[3\]:R:1:angles:R:1:forces:R:3:torques:R:3 separation_distance=2.4 energy=-0.07650291257784259 pbc="F F F"
X       10.00000000      10.00000000      10.00000000       0.00000000       0.00000000       0.00000000       1.00000000       1.00000000       2.00000000       1.00000000       3.14159265       0.20696854      -0.04654718       0.00000000      -0.00000000      -0.00000000       0.00837707
X       12.40000000      10.00000000      10.00000000       0.93969262       0.00000000       0.00000000       0.34202014       1.00000000       2.00000000       1.00000000       0.69813170      -0.20696854       0.04654718      -0.00000000      -0.00000000      -0.00000000       0.10351632
2
Lattice="20.0 0.0 0.0 0.0 20.0 0.0 0.0 0.0 20.0" Properties=species:S:1:pos:R:3:quaternions:R:4:c_diameter\[1\]:R:1:c_diameter\[2\]:R:1:c_diameter\[3\]:R:1:angles:R:1:forces:R:3:torques:R:3 separation_distance=2.4 energy=-0.12420593957784308 pbc="F F F"
X       10.00000000      10.00000000      10.00000000       0.00000000       0.00000000       0.00000000       1.00000000       1.00000000       2.00000000       1.00000000       3.14159265       0.39024977      -0.06823881       0.00000000      -0.00000000      -0.00000000      -0.00295317
X       12.40000000      10.00000000      10.00000000       0.86602540       0.00000000       0.00000000       0.50000000       1.00000000       2.00000000       1.00000000       1.04719755      -0.39024977       0.06823881      -0.00000000      -0.00000000      -0.00000000       0.16504209
2
Lattice="20.0 0.0 0.0 0.0 20.0 0.0 0.0 0.0 20.0" Properties=species:S:1:pos:R:3:quaternions:R:4:c_diameter\[1\]:R:1:c_diameter\[2\]:R:1:c_diameter\[3\]:R:1:angles:R:1:forces:R:3:torques:R:3 separation_distance=2.4 energy=-0.17925714468385756 pbc="F F F"
X       10.00000000      10.00000000      10.00000000       0.00000000       0.00000000       0.00000000       1.00000000       1.00000000       2.00000000       1.00000000       3.14159265       0.63019441      -0.04319742       0.00000000      -0.00000000      -0.00000000      -0.00759158
X       12.40000000      10.00000000      10.00000000       0.76604444       0.00000000       0.00000000       0.64278761       1.00000000       2.00000000       1.00000000       1.39626340      -0.63019441       0.04319742      -0.00000000      -0.00000000      -0.00000000       0.10785336
2
Lattice="20.0 0.0 0.0 0.0 20.0 0.0 0.0 0.0 20.0" Properties=species:S:1:pos:R:3:quaternions:R:4:c_diameter\[1\]:R:1:c_diameter\[2\]:R:1:c_diameter\[3\]:R:1:angles:R:1:forces:R:3:torques:R:3 separation_distance=2.4 energy=-0.17925714468385764 pbc="F F F"
X       10.00000000      10.00000000      10.00000000       0.00000000       0.00000000       0.00000000       1.00000000       1.00000000       2.00000000       1.00000000       3.14159265       0.63019441       0.04319742       0.00000000      -0.00000000      -0.00000000       0.00759158
X       12.40000000      10.00000000      10.00000000       0.64278761       0.00000000       0.00000000       0.76604444       1.00000000       2.00000000       1.00000000       1.74532925      -0.63019441      -0.04319742      -0.00000000      -0.00000000      -0.00000000      -0.10785336
2
Lattice="20.0 0.0 0.0 0.0 20.0 0.0 0.0 0.0 20.0" Properties=species:S:1:pos:R:3:quaternions:R:4:c_diameter\[1\]:R:1:c_diameter\[2\]:R:1:c_diameter\[3\]:R:1:angles:R:1:forces:R:3:torques:R:3 separation_distance=2.4 energy=-0.12420593957784312 pbc="F F F"
X       10.00000000      10.00000000      10.00000000       0.00000000       0.00000000       0.00000000       1.00000000       1.00000000       2.00000000       1.00000000       3.14159265       0.39024977       0.06823881       0.00000000      -0.00000000      -0.00000000       0.00295317
X       12.40000000      10.00000000      10.00000000       0.50000000       0.00000000       0.00000000       0.86602540       1.00000000       2.00000000       1.00000000       2.09439510      -0.39024977      -0.06823881      -0.00000000      -0.00000000      -0.00000000      -0.16504209
2
Lattice="20.0 0.0 0.0 0.0 20.0 0.0 0.0 0.0 20.0" Properties=species:S:1:pos:R:3:quaternions:R:4:c_diameter\[1\]:R:1:c_diameter\[2\]:R:1:c_diameter\[3\]:R:1:angles:R:1:forces:R:3:torques:R:3 separation_distance=2.4 energy=-0.07650291257784261 pbc="F F F"
X       10.00000000      10.00000000      10.00000000       0.00000000       0.00000000       0.00000000       1.00000000       1.00000000       2.00000000       1.00000000       3.14159265       0.20696854       0.04654718       0.00000000      -0.00000000      -0.00000000      -0.00837707
X       12.40000000      10.00000000      10.00000000       0.34202014       0.00000000       0.00000000       0.93969262       1.00000000       2.00000000       1.00000000       2.44346095      -0.20696854      -0.04654718      -0.00000000      -0.00000000      -0.00000000      -0.10351632
2
Lattice="20.0 0.0 0.0 0.0 20.0 0.0 0.0 0.0 20.0" Properties=species:S:1:pos:R:3:quaternions:R:4:c_diameter\[1\]:R:1:c_diameter\[2\]:R:1:c_diameter\[3\]:R:1:angles:R:1:forces:R:3:torques:R:3 separation_distance=2.4 energy=-0.0507510599608838 pbc="F F F"
X       10.00000000      10.00000000      10.00000000       0.00000000       0.00000000       0.00000000       1.00000000       1.00000000       2.00000000       1.00000000       3.14159265       0.12218274       0.02290689       0.00000000      -0.00000000      -0.00000000      -0.00781426
X       12.40000000      10.00000000      10.00000000       0.17364818       0.00000000       0.00000000       0.98480775       1.00000000       2.00000000       1.00000000       2.79252680      -0.12218274      -0.02290689      -0.00000000      -0.00000000      -0.00000000      -0.04722602
2
Lattice="20.0 0.0 0.0 0.0 20.0 0.0 0.0 0.0 20.0" Properties=species:S:1:pos:R:3:quaternions:R:4:c_diameter\[1\]:R:1:c_diameter\[2\]:R:1:c_diameter\[3\]:R:1:angles:R:1:forces:R:3:torques:R:3 separation_distance=2.4 energy=-0.04258829178032618 pbc="F F F"
X       10.00000000      10.00000000      10.00000000       0.00000000       0.00000000       0.00000000       1.00000000       1.00000000       2.00000000       1.00000000       3.14159265       0.09816444       0.00000000       0.00000000      -0.00000000      -0.00000000      -0.00000000
X       12.40000000      10.00000000      10.00000000       0.00000000       0.00000000       0.00000000       1.00000000       1.00000000       2.00000000       1.00000000       3.14159265      -0.09816444      -0.00000000      -0.00000000      -0.00000000      -0.00000000      -0.00000000
