2
Lattice="20.0 0.0 0.0 0.0 20.0 0.0 0.0 0.0 20.0" Properties=species:S:1:pos:R:3:quaternions:R:4:c_diameter\[1\]:R:1:c_diameter\[2\]:R:1:c_diameter\[3\]:R:1:forces:R:3:torques:R:3 separation_distance=3.0303030303030303 energy=-0.3078373943992786 pbc="F F F"
X       10.00000000      10.00000000      10.00000000       0.70710678       0.00000000       0.00000000       0.70710678       1.00000000       1.50000000       2.00000000      -7.34619332       0.00000000       0.00000000      -0.00000000      -0.00000000      -0.00000000
X       13.03030303      10.00000000      10.00000000       0.70710678       0.00000000       0.00000000       0.70710678       1.00000000       1.50000000       2.00000000       7.34619332      -0.00000000      -0.00000000      -0.00000000      -0.00000000      -0.00000000
2
Lattice="20.0 0.0 0.0 0.0 20.0 0.0 0.0 0.0 20.0" Properties=species:S:1:pos:R:3:quaternions:R:4:c_diameter\[1\]:R:1:c_diameter\[2\]:R:1:c_diameter\[3\]:R:1:forces:R:3:torques:R:3 separation_distance=3.0456075910621365 energy=-0.40339590680249887 pbc="F F F"
X       10.00000000      10.00000000      10.00000000       0.70710678       0.00000000       0.00000000       0.70710678       1.00000000       1.50000000       2.00000000      -5.22994723       0.00000000       0.00000000      -0.00000000      -0.00000000      -0.00000000
X       13.04560759      10.00000000      10.00000000       0.70710678       0.00000000       0.00000000       0.70710678       1.00000000       1.50000000       2.00000000       5.22994723      -0.00000000      -0.00000000      -0.00000000      -0.00000000      -0.00000000
2
Lattice="20.0 0.0 0.0 0.0 20.0 0.0 0.0 0.0 20.0" Properties=species:S:1:pos:R:3:quaternions:R:4:c_diameter\[1\]:R:1:c_diameter\[2\]:R:1:c_diameter\[3\]:R:1:forces:R:3:torques:R:3 separation_distance=3.0609121518212428 energy=-0.47032675076529423 pbc="F F F"
X       10.00000000      10.00000000      10.00000000       0.70710678       0.00000000       0.00000000       0.70710678       1.00000000       1.50000000       2.00000000      -3.58611706       0.00000000       0.00000000      -0.00000000      -0.00000000      -0.00000000
X       13.06091215      10.00000000      10.00000000       0.70710678       0.00000000       0.00000000       0.70710678       1.00000000       1.50000000       2.00000000       3.58611706      -0.00000000      -0.00000000      -0.00000000      -0.00000000      -0.00000000
2
Lattice="20.0 0.0 0.0 0.0 20.0 0.0 0.0 0.0 20.0" Properties=species:S:1:pos:R:3:quaternions:R:4:c_diameter\[1\]:R:1:c_diameter\[2\]:R:1:c_diameter\[3\]:R:1:forces:R:3:torques:R:3 separation_distance=3.076216712580349 energy=-0.5150535912464089 pbc="F F F"
X       10.00000000      10.00000000      10.00000000       0.70710678       0.00000000       0.00000000       0.70710678       1.00000000       1.50000000       2.00000000      -2.31344920       0.00000000       0.00000000      -0.00000000      -0.00000000      -0.00000000
X       13.07621671      10.00000000      10.00000000       0.70710678       0.00000000       0.00000000       0.70710678       1.00000000       1.50000000       2.00000000       2.31344920      -0.00000000      -0.00000000      -0.00000000      -0.00000000      -0.00000000
2
Lattice="20.0 0.0 0.0 0.0 20.0 0.0 0.0 0.0 20.0" Properties=species:S:1:pos:R:3:quaternions:R:4:c_diameter\[1\]:R:1:c_diameter\[2\]:R:1:c_diameter\[3\]:R:1:forces:R:3:torques:R:3 separation_distance=3.0915212733394553 energy=-0.5426253447676053 pbc="F F F"
X       10.00000000      10.00000000      10.00000000       0.70710678       0.00000000       0.00000000       0.70710678       1.00000000       1.50000000       2.00000000      -1.33262055       0.00000000       0.00000000      -0.00000000      -0.00000000      -0.00000000
X       13.09152127      10.00000000      10.00000000       0.70710678       0.00000000       0.00000000       0.70710678       1.00000000       1.50000000       2.00000000       1.33262055      -0.00000000      -0.00000000      -0.00000000      -0.00000000      -0.00000000
2
Lattice="20.0 0.0 0.0 0.0 20.0 0.0 0.0 0.0 20.0" Properties=species:S:1:pos:R:3:quaternions:R:4:c_diameter\[1\]:R:1:c_diameter\[2\]:R:1:c_diameter\[3\]:R:1:forces:R:3:torques:R:3 separation_distance=3.1068258340985615 energy=-0.5570128201340815 pbc="F F F"
X       10.00000000      10.00000000      10.00000000       0.70710678       0.00000000       0.00000000       0.70710678       1.00000000       1.50000000       2.00000000      -0.58135641       0.00000000       0.00000000      -0.00000000      -0.00000000      -0.00000000
X       13.10682583      10.00000000      10.00000000       0.70710678       0.00000000       0.00000000       0.70710678       1.00000000       1.50000000       2.00000000       0.58135641      -0.00000000      -0.00000000      -0.00000000      -0.00000000      -0.00000000
2
Lattice="20.0 0.0 0.0 0.0 20.0 0.0 0.0 0.0 20.0" Properties=species:S:1:pos:R:3:quaternions:R:4:c_diameter\[1\]:R:1:c_diameter\[2\]:R:1:c_diameter\[3\]:R:1:forces:R:3:torques:R:3 separation_distance=3.1221303948576677 energy=-0.5613396315037751 pbc="F F F"
X       10.00000000      10.00000000      10.00000000       0.70710678       0.00000000       0.00000000       0.70710678       1.00000000       1.50000000       2.00000000      -0.01067207       0.00000000       0.00000000      -0.00000000      -0.00000000      -0.00000000
X       13.12213039      10.00000000      10.00000000       0.70710678       0.00000000       0.00000000       0.70710678       1.00000000       1.50000000       2.00000000       0.01067207      -0.00000000      -0.00000000      -0.00000000      -0.00000000      -0.00000000
2
Lattice="20.0 0.0 0.0 0.0 20.0 0.0 0.0 0.0 20.0" Properties=species:S:1:pos:R:3:quaternions:R:4:c_diameter\[1\]:R:1:c_diameter\[2\]:R:1:c_diameter\[3\]:R:1:forces:R:3:torques:R:3 separation_distance=3.1374349556167735 energy=-0.5580624358293671 pbc="F F F"
X       10.00000000      10.00000000      10.00000000       0.70710678       0.00000000       0.00000000       0.70710678       1.00000000       1.50000000       2.00000000       0.41802963       0.00000000       0.00000000      -0.00000000      -0.00000000      -0.00000000
X       13.13743496      10.00000000      10.00000000       0.70710678       0.00000000       0.00000000       0.70710678       1.00000000       1.50000000       2.00000000      -0.41802963      -0.00000000      -0.00000000      -0.00000000      -0.00000000      -0.00000000
2
Lattice="20.0 0.0 0.0 0.0 20.0 0.0 0.0 0.0 20.0" Properties=species:S:1:pos:R:3:quaternions:R:4:c_diameter\[1\]:R:1:c_diameter\[2\]:R:1:c_diameter\[3\]:R:1:forces:R:3:torques:R:3 separation_distance=3.15273951637588 energy=-0.5491119771568418 pbc="F F F"
X       10.00000000      10.00000000      10.00000000       0.70710678       0.00000000       0.00000000       0.70710678       1.00000000       1.50000000       2.00000000       0.73520673       0.00000000       0.00000000      -0.00000000      -0.00000000      -0.00000000
X       13.15273952      10.00000000      10.00000000       0.70710678       0.00000000       0.00000000       0.70710678       1.00000000       1.50000000       2.00000000      -0.73520673      -0.00000000      -0.00000000      -0.00000000      -0.00000000      -0.00000000
2
Lattice="20.0 0.0 0.0 0.0 20.0 0.0 0.0 0.0 20.0" Properties=species:S:1:pos:R:3:quaternions:R:4:c_diameter\[1\]:R:1:c_diameter\[2\]:R:1:c_diameter\[3\]:R:1:forces:R:3:torques:R:3 separation_distance=3.168044077134986 energy=-0.5360037273154878 pbc="F F F"
X       10.00000000      10.00000000      10.00000000       0.70710678       0.00000000       0.00000000       0.70710678       1.00000000       1.50000000       2.00000000       0.96492489       0.00000000       0.00000000      -0.00000000      -0.00000000      -0.00000000
X       13.16804408      10.00000000      10.00000000       0.70710678       0.00000000       0.00000000       0.70710678       1.00000000       1.50000000       2.00000000      -0.96492489      -0.00000000      -0.00000000      -0.00000000      -0.00000000      -0.00000000
2
Lattice="20.0 0.0 0.0 0.0 20.0 0.0 0.0 0.0 20.0" Properties=species:S:1:pos:R:3:quaternions:R:4:c_diameter\[1\]:R:1:c_diameter\[2\]:R:1:c_diameter\[3\]:R:1:forces:R:3:torques:R:3 separation_distance=3.1833486378940923 energy=-0.5199248734498981 pbc="F F F"
X       10.00000000      10.00000000      10.00000000       0.70710678       0.00000000       0.00000000       0.70710678       1.00000000       1.50000000       2.00000000       1.12621836       0.00000000       0.00000000      -0.00000000      -0.00000000      -0.00000000
X       13.18334864      10.00000000      10.00000000       0.70710678       0.00000000       0.00000000       0.70710678       1.00000000       1.50000000       2.00000000      -1.12621836      -0.00000000      -0.00000000      -0.00000000      -0.00000000      -0.00000000
2
Lattice="20.0 0.0 0.0 0.0 20.0 0.0 0.0 0.0 20.0" Properties=species:S:1:pos:R:3:quaternions:R:4:c_diameter\[1\]:R:1:c_diameter\[2\]:R:1:c_diameter\[3\]:R:1:forces:R:3:torques:R:3 separation_distance=3.1986531986531985 energy=-0.5018028533770631 pbc="F F F"
X       10.00000000      10.00000000      10.00000000       0.70710678       0.00000000       0.00000000       0.70710678       1.00000000       1.50000000       2.00000000       1.23415313       0.00000000       0.00000000      -0.00000000      -0.00000000      -0.00000000
X       13.19865320      10.00000000      10.00000000       0.70710678       0.00000000       0.00000000       0.70710678       1.00000000       1.50000000       2.00000000      -1.23415313      -0.00000000      -0.00000000      -0.00000000      -0.00000000      -0.00000000
2
Lattice="20.0 0.0 0.0 0.0 20.0 0.0 0.0 0.0 20.0" Properties=species:S:1:pos:R:3:quaternions:R:4:c_diameter\[1\]:R:1:c_diameter\[2\]:R:1:c_diameter\[3\]:R:1:forces:R:3:torques:R:3 separation_distance=3.2139577594123048 energy=-0.4823594582874878 pbc="F F F"
X       10.00000000      10.00000000      10.00000000       0.70710678       0.00000000       0.00000000       0.70710678       1.00000000       1.50000000       2.00000000       1.30065960       0.00000000       0.00000000      -0.00000000      -0.00000000      -0.00000000
X       13.21395776      10.00000000      10.00000000       0.70710678       0.00000000       0.00000000       0.70710678       1.00000000       1.50000000       2.00000000      -1.30065960      -0.00000000      -0.00000000      -0.00000000      -0.00000000      -0.00000000
2
Lattice="20.0 0.0 0.0 0.0 20.0 0.0 0.0 0.0 20.0" Properties=species:S:1:pos:R:3:quaternions:R:4:c_diameter\[1\]:R:1:c_diameter\[2\]:R:1:c_diameter\[3\]:R:1:forces:R:3:torques:R:3 separation_distance=3.229262320171411 energy=-0.4621536184486168 pbc="F F F"
X       10.00000000      10.00000000      10.00000000       0.70710678       0.00000000       0.00000000       0.70710678       1.00000000       1.50000000       2.00000000       1.33518633       0.00000000       0.00000000      -0.00000000      -0.00000000      -0.00000000
X       13.22926232      10.00000000      10.00000000       0.70710678       0.00000000       0.00000000       0.70710678       1.00000000       1.50000000       2.00000000      -1.33518633      -0.00000000      -0.00000000      -0.00000000      -0.00000000      -0.00000000
2
Lattice="20.0 0.0 0.0 0.0 20.0 0.0 0.0 0.0 20.0" Properties=species:S:1:pos:R:3:quaternions:R:4:c_diameter\[1\]:R:1:c_diameter\[2\]:R:1:c_diameter\[3\]:R:1:forces:R:3:torques:R:3 separation_distance=3.2445668809305173 energy=-0.4416152938578715 pbc="F F F"
X       10.00000000      10.00000000      10.00000000       0.70710678       0.00000000       0.00000000       0.70710678       1.00000000       1.50000000       2.00000000       1.34521446       0.00000000       0.00000000      -0.00000000      -0.00000000      -0.00000000
X       13.24456688      10.00000000      10.00000000       0.70710678       0.00000000       0.00000000       0.70710678       1.00000000       1.50000000       2.00000000      -1.34521446      -0.00000000      -0.00000000      -0.00000000      -0.00000000      -0.00000000
2
Lattice="20.0 0.0 0.0 0.0 20.0 0.0 0.0 0.0 20.0" Properties=species:S:1:pos:R:3:quaternions:R:4:c_diameter\[1\]:R:1:c_diameter\[2\]:R:1:c_diameter\[3\]:R:1:forces:R:3:torques:R:3 separation_distance=3.2598714416896235 energy=-0.4210723577125063 pbc="F F F"
X       10.00000000      10.00000000      10.00000000       0.70710678       0.00000000       0.00000000       0.70710678       1.00000000       1.50000000       2.00000000       1.33666345       0.00000000       0.00000000      -0.00000000      -0.00000000      -0.00000000
X       13.25987144      10.00000000      10.00000000       0.70710678       0.00000000       0.00000000       0.70710678       1.00000000       1.50000000       2.00000000      -1.33666345      -0.00000000      -0.00000000      -0.00000000      -0.00000000      -0.00000000
2
Lattice="20.0 0.0 0.0 0.0 20.0 0.0 0.0 0.0 20.0" Properties=species:S:1:pos:R:3:quaternions:R:4:c_diameter\[1\]:R:1:c_diameter\[2\]:R:1:c_diameter\[3\]:R:1:forces:R:3:torques:R:3 separation_distance=3.2751760024487298 energy=-0.40077194814269107 pbc="F F F"
X       10.00000000      10.00000000      10.00000000       0.70710678       0.00000000       0.00000000       0.70710678       1.00000000       1.50000000       2.00000000       1.31421168       0.00000000       0.00000000      -0.00000000      -0.00000000      -0.00000000
X       13.27517600      10.00000000      10.00000000       0.70710678       0.00000000       0.00000000       0.70710678       1.00000000       1.50000000       2.00000000      -1.31421168      -0.00000000      -0.00000000      -0.00000000      -0.00000000      -0.00000000
2
Lattice="20.0 0.0 0.0 0.0 20.0 0.0 0.0 0.0 20.0" Properties=species:S:1:pos:R:3:quaternions:R:4:c_diameter\[1\]:R:1:c_diameter\[2\]:R:1:c_diameter\[3\]:R:1:forces:R:3:torques:R:3 separation_distance=3.290480563207836 energy=-0.38089744425213173 pbc="F F F"
X       10.00000000      10.00000000      10.00000000       0.70710678       0.00000000       0.00000000       0.70710678       1.00000000       1.50000000       2.00000000       1.28155035       0.00000000       0.00000000      -0.00000000      -0.00000000      -0.00000000
X       13.29048056      10.00000000      10.00000000       0.70710678       0.00000000       0.00000000       0.70710678       1.00000000       1.50000000       2.00000000      -1.28155035      -0.00000000      -0.00000000      -0.00000000      -0.00000000      -0.00000000
2
Lattice="20.0 0.0 0.0 0.0 20.0 0.0 0.0 0.0 20.0" Properties=species:S:1:pos:R:3:quaternions:R:4:c_diameter\[1\]:R:1:c_diameter\[2\]:R:1:c_diameter\[3\]:R:1:forces:R:3:torques:R:3 separation_distance=3.305785123966942 energy=-0.36158197445127543 pbc="F F F"
X       10.00000000      10.00000000      10.00000000       0.70710678       0.00000000       0.00000000       0.70710678       1.00000000       1.50000000       2.00000000       1.24158484       0.00000000       0.00000000      -0.00000000      -0.00000000      -0.00000000
X       13.30578512      10.00000000      10.00000000       0.70710678       0.00000000       0.00000000       0.70710678       1.00000000       1.50000000       2.00000000      -1.24158484      -0.00000000      -0.00000000      -0.00000000      -0.00000000      -0.00000000
2
Lattice="20.0 0.0 0.0 0.0 20.0 0.0 0.0 0.0 20.0" Properties=species:S:1:pos:R:3:quaternions:R:4:c_diameter\[1\]:R:1:c_diameter\[2\]:R:1:c_diameter\[3\]:R:1:forces:R:3:torques:R:3 separation_distance=3.321089684726048 energy=-0.34291917189265403 pbc="F F F"
X       10.00000000      10.00000000      10.00000000       0.70710678       0.00000000       0.00000000       0.70710678       1.00000000       1.50000000       2.00000000       1.19659472       0.00000000       0.00000000      -0.00000000      -0.00000000      -0.00000000
X       13.32108968      10.00000000      10.00000000       0.70710678       0.00000000       0.00000000       0.70710678       1.00000000       1.50000000       2.00000000      -1.19659472      -0.00000000      -0.00000000      -0.00000000      -0.00000000      -0.00000000
2
Lattice="20.0 0.0 0.0 0.0 20.0 0.0 0.0 0.0 20.0" Properties=species:S:1:pos:R:3:quaternions:R:4:c_diameter\[1\]:R:1:c_diameter\[2\]:R:1:c_diameter\[3\]:R:1:forces:R:3:torques:R:3 separation_distance=3.3363942454851543 energy=-0.32497174098837794 pbc="F F F"
X       10.00000000      10.00000000      10.00000000       0.70710678       0.00000000       0.00000000       0.70710678       1.00000000       1.50000000       2.00000000       1.14836108       0.00000000       0.00000000      -0.00000000      -0.00000000      -0.00000000
X       13.33639425      10.00000000      10.00000000       0.70710678       0.00000000       0.00000000       0.70710678       1.00000000       1.50000000       2.00000000      -1.14836108      -0.00000000      -0.00000000      -0.00000000      -0.00000000      -0.00000000
2
Lattice="20.0 0.0 0.0 0.0 20.0 0.0 0.0 0.0 20.0" Properties=species:S:1:pos:R:3:quaternions:R:4:c_diameter\[1\]:R:1:c_diameter\[2\]:R:1:c_diameter\[3\]:R:1:forces:R:3:torques:R:3 separation_distance=3.3516988062442605 energy=-0.30777828092556553 pbc="F F F"
X       10.00000000      10.00000000      10.00000000       0.70710678       0.00000000       0.00000000       0.70710678       1.00000000       1.50000000       2.00000000       1.09826795       0.00000000       0.00000000      -0.00000000      -0.00000000      -0.00000000
X       13.35169881      10.00000000      10.00000000       0.70710678       0.00000000       0.00000000       0.70710678       1.00000000       1.50000000       2.00000000      -1.09826795      -0.00000000      -0.00000000      -0.00000000      -0.00000000      -0.00000000
2
Lattice="20.0 0.0 0.0 0.0 20.0 0.0 0.0 0.0 20.0" Properties=species:S:1:pos:R:3:quaternions:R:4:c_diameter\[1\]:R:1:c_diameter\[2\]:R:1:c_diameter\[3\]:R:1:forces:R:3:torques:R:3 separation_distance=3.3670033670033668 energy=-0.2913587194535849 pbc="F F F"
X       10.00000000      10.00000000      10.00000000       0.70710678       0.00000000       0.00000000       0.70710678       1.00000000       1.50000000       2.00000000       1.04738329       0.00000000       0.00000000      -0.00000000      -0.00000000      -0.00000000
X       13.36700337      10.00000000      10.00000000       0.70710678       0.00000000       0.00000000       0.70710678       1.00000000       1.50000000       2.00000000      -1.04738329      -0.00000000      -0.00000000      -0.00000000      -0.00000000      -0.00000000
2
Lattice="20.0 0.0 0.0 0.0 20.0 0.0 0.0 0.0 20.0" Properties=species:S:1:pos:R:3:quaternions:R:4:c_diameter\[1\]:R:1:c_diameter\[2\]:R:1:c_diameter\[3\]:R:1:forces:R:3:torques:R:3 separation_distance=3.382307927762473 energy=-0.27571863735265334 pbc="F F F"
X       10.00000000      10.00000000      10.00000000       0.70710678       0.00000000       0.00000000       0.70710678       1.00000000       1.50000000       2.00000000       0.99652361       0.00000000       0.00000000      -0.00000000      -0.00000000      -0.00000000
X       13.38230793      10.00000000      10.00000000       0.70710678       0.00000000       0.00000000       0.70710678       1.00000000       1.50000000       2.00000000      -0.99652361      -0.00000000      -0.00000000      -0.00000000      -0.00000000      -0.00000000
2
Lattice="20.0 0.0 0.0 0.0 20.0 0.0 0.0 0.0 20.0" Properties=species:S:1:pos:R:3:quaternions:R:4:c_diameter\[1\]:R:1:c_diameter\[2\]:R:1:c_diameter\[3\]:R:1:forces:R:3:torques:R:3 separation_distance=3.3976124885215793 energy=-0.2608527065551702 pbc="F F F"
X       10.00000000      10.00000000      10.00000000       0.70710678       0.00000000       0.00000000       0.70710678       1.00000000       1.50000000       2.00000000       0.94630566       0.00000000       0.00000000      -0.00000000      -0.00000000      -0.00000000
X       13.39761249      10.00000000      10.00000000       0.70710678       0.00000000       0.00000000       0.70710678       1.00000000       1.50000000       2.00000000      -0.94630566      -0.00000000      -0.00000000      -0.00000000      -0.00000000      -0.00000000
2
Lattice="20.0 0.0 0.0 0.0 20.0 0.0 0.0 0.0 20.0" Properties=species:S:1:pos:R:3:quaternions:R:4:c_diameter\[1\]:R:1:c_diameter\[2\]:R:1:c_diameter\[3\]:R:1:forces:R:3:torques:R:3 separation_distance=3.4129170492806855 energy=-0.24674741951516554 pbc="F F F"
X       10.00000000      10.00000000      10.00000000       0.70710678       0.00000000       0.00000000       0.70710678       1.00000000       1.50000000       2.00000000       0.89718772       0.00000000       0.00000000      -0.00000000      -0.00000000      -0.00000000
X       13.41291705      10.00000000      10.00000000       0.70710678       0.00000000       0.00000000       0.70710678       1.00000000       1.50000000       2.00000000      -0.89718772      -0.00000000      -0.00000000      -0.00000000      -0.00000000      -0.00000000
2
Lattice="20.0 0.0 0.0 0.0 20.0 0.0 0.0 0.0 20.0" Properties=species:S:1:pos:R:3:quaternions:R:4:c_diameter\[1\]:R:1:c_diameter\[2\]:R:1:c_diameter\[3\]:R:1:forces:R:3:torques:R:3 separation_distance=3.4282216100397918 energy=-0.23338325149998662 pbc="F F F"
X       10.00000000      10.00000000      10.00000000       0.70710678       0.00000000       0.00000000       0.70710678       1.00000000       1.50000000       2.00000000       0.84950275       0.00000000       0.00000000      -0.00000000      -0.00000000      -0.00000000
X       13.42822161      10.00000000      10.00000000       0.70710678       0.00000000       0.00000000       0.70710678       1.00000000       1.50000000       2.00000000      -0.84950275      -0.00000000      -0.00000000      -0.00000000      -0.00000000      -0.00000000
2
Lattice="20.0 0.0 0.0 0.0 20.0 0.0 0.0 0.0 20.0" Properties=species:S:1:pos:R:3:quaternions:R:4:c_diameter\[1\]:R:1:c_diameter\[2\]:R:1:c_diameter\[3\]:R:1:forces:R:3:torques:R:3 separation_distance=3.443526170798898 energy=-0.2207363689853334 pbc="F F F"
X       10.00000000      10.00000000      10.00000000       0.70710678       0.00000000       0.00000000       0.70710678       1.00000000       1.50000000       2.00000000       0.80348482       0.00000000       0.00000000      -0.00000000      -0.00000000      -0.00000000
X       13.44352617      10.00000000      10.00000000       0.70710678       0.00000000       0.00000000       0.70710678       1.00000000       1.50000000       2.00000000      -0.80348482      -0.00000000      -0.00000000      -0.00000000      -0.00000000      -0.00000000
2
Lattice="20.0 0.0 0.0 0.0 20.0 0.0 0.0 0.0 20.0" Properties=species:S:1:pos:R:3:quaternions:R:4:c_diameter\[1\]:R:1:c_diameter\[2\]:R:1:c_diameter\[3\]:R:1:forces:R:3:torques:R:3 separation_distance=3.4588307315580042 energy=-0.20877997469109946 pbc="F F F"
X       10.00000000      10.00000000      10.00000000       0.70710678       0.00000000       0.00000000       0.70710678       1.00000000       1.50000000       2.00000000       0.75929030       0.00000000       0.00000000      -0.00000000      -0.00000000      -0.00000000
X       13.45883073      10.00000000      10.00000000       0.70710678       0.00000000       0.00000000       0.70710678       1.00000000       1.50000000       2.00000000      -0.75929030      -0.00000000      -0.00000000      -0.00000000      -0.00000000      -0.00000000
2
Lattice="20.0 0.0 0.0 0.0 20.0 0.0 0.0 0.0 20.0" Properties=species:S:1:pos:R:3:quaternions:R:4:c_diameter\[1\]:R:1:c_diameter\[2\]:R:1:c_diameter\[3\]:R:1:forces:R:3:torques:R:3 separation_distance=3.4741352923171105 energy=-0.19748536176793838 pbc="F F F"
X       10.00000000      10.00000000      10.00000000       0.70710678       0.00000000       0.00000000       0.70710678       1.00000000       1.50000000       2.00000000       0.71701487       0.00000000       0.00000000      -0.00000000      -0.00000000      -0.00000000
X       13.47413529      10.00000000      10.00000000       0.70710678       0.00000000       0.00000000       0.70710678       1.00000000       1.50000000       2.00000000      -0.71701487      -0.00000000      -0.00000000      -0.00000000      -0.00000000      -0.00000000
2
Lattice="20.0 0.0 0.0 0.0 20.0 0.0 0.0 0.0 20.0" Properties=species:S:1:pos:R:3:quaternions:R:4:c_diameter\[1\]:R:1:c_diameter\[2\]:R:1:c_diameter\[3\]:R:1:forces:R:3:torques:R:3 separation_distance=3.4894398530762167 energy=-0.18682273526750387 pbc="F F F"
X       10.00000000      10.00000000      10.00000000       0.70710678       0.00000000       0.00000000       0.70710678       1.00000000       1.50000000       2.00000000       0.67670708       0.00000000       0.00000000      -0.00000000      -0.00000000      -0.00000000
X       13.48943985      10.00000000      10.00000000       0.70710678       0.00000000       0.00000000       0.70710678       1.00000000       1.50000000       2.00000000      -0.67670708      -0.00000000      -0.00000000      -0.00000000      -0.00000000      -0.00000000
2
Lattice="20.0 0.0 0.0 0.0 20.0 0.0 0.0 0.0 20.0" Properties=species:S:1:pos:R:3:quaternions:R:4:c_diameter\[1\]:R:1:c_diameter\[2\]:R:1:c_diameter\[3\]:R:1:forces:R:3:torques:R:3 separation_distance=3.504744413835323 energy=-0.17676184754516727 pbc="F F F"
X       10.00000000      10.00000000      10.00000000       0.70710678       0.00000000       0.00000000       0.70710678       1.00000000       1.50000000       2.00000000       0.63837915       0.00000000       0.00000000      -0.00000000      -0.00000000      -0.00000000
X       13.50474441      10.00000000      10.00000000       0.70710678       0.00000000       0.00000000       0.70710678       1.00000000       1.50000000       2.00000000      -0.63837915      -0.00000000      -0.00000000      -0.00000000      -0.00000000      -0.00000000
2
Lattice="20.0 0.0 0.0 0.0 20.0 0.0 0.0 0.0 20.0" Properties=species:S:1:pos:R:3:quaternions:R:4:c_diameter\[1\]:R:1:c_diameter\[2\]:R:1:c_diameter\[3\]:R:1:forces:R:3:torques:R:3 separation_distance=3.520048974594429 energy=-0.16727248505673475 pbc="F F F"
X       10.00000000      10.00000000      10.00000000       0.70710678       0.00000000       0.00000000       0.70710678       1.00000000       1.50000000       2.00000000       0.60201568       0.00000000       0.00000000      -0.00000000      -0.00000000      -0.00000000
X       13.52004897      10.00000000      10.00000000       0.70710678       0.00000000       0.00000000       0.70710678       1.00000000       1.50000000       2.00000000      -0.60201568      -0.00000000      -0.00000000      -0.00000000      -0.00000000      -0.00000000
2
Lattice="20.0 0.0 0.0 0.0 20.0 0.0 0.0 0.0 20.0" Properties=species:S:1:pos:R:3:quaternions:R:4:c_diameter\[1\]:R:1:c_diameter\[2\]:R:1:c_diameter\[3\]:R:1:forces:R:3:torques:R:3 separation_distance=3.535353535353535 energy=-0.15832483665045283 pbc="F F F"
X       10.00000000      10.00000000      10.00000000       0.70710678       0.00000000       0.00000000       0.70710678       1.00000000       1.50000000       2.00000000       0.56758051       0.00000000       0.00000000      -0.00000000      -0.00000000      -0.00000000
X       13.53535354      10.00000000      10.00000000       0.70710678       0.00000000       0.00000000       0.70710678       1.00000000       1.50000000       2.00000000      -0.56758051      -0.00000000      -0.00000000      -0.00000000      -0.00000000      -0.00000000
2
Lattice="20.0 0.0 0.0 0.0 20.0 0.0 0.0 0.0 20.0" Properties=species:S:1:pos:R:3:quaternions:R:4:c_diameter\[1\]:R:1:c_diameter\[2\]:R:1:c_diameter\[3\]:R:1:forces:R:3:torques:R:3 separation_distance=3.5506580961126413 energy=-0.14988976755136332 pbc="F F F"
X       10.00000000      10.00000000      10.00000000       0.70710678       0.00000000       0.00000000       0.70710678       1.00000000       1.50000000       2.00000000       0.53502222       0.00000000       0.00000000      -0.00000000      -0.00000000      -0.00000000
X       13.55065810      10.00000000      10.00000000       0.70710678       0.00000000       0.00000000       0.70710678       1.00000000       1.50000000       2.00000000      -0.53502222      -0.00000000      -0.00000000      -0.00000000      -0.00000000      -0.00000000
2
Lattice="20.0 0.0 0.0 0.0 20.0 0.0 0.0 0.0 20.0" Properties=species:S:1:pos:R:3:quaternions:R:4:c_diameter\[1\]:R:1:c_diameter\[2\]:R:1:c_diameter\[3\]:R:1:forces:R:3:torques:R:3 separation_distance=3.5659626568717475 energy=-0.14193901849306556 pbc="F F F"
X       10.00000000      10.00000000      10.00000000       0.70710678       0.00000000       0.00000000       0.70710678       1.00000000       1.50000000       2.00000000       0.50427846       0.00000000       0.00000000      -0.00000000      -0.00000000      -0.00000000
X       13.56596266      10.00000000      10.00000000       0.70710678       0.00000000       0.00000000       0.70710678       1.00000000       1.50000000       2.00000000      -0.50427846      -0.00000000      -0.00000000      -0.00000000      -0.00000000      -0.00000000
2
Lattice="20.0 0.0 0.0 0.0 20.0 0.0 0.0 0.0 20.0" Properties=species:S:1:pos:R:3:quaternions:R:4:c_diameter\[1\]:R:1:c_diameter\[2\]:R:1:c_diameter\[3\]:R:1:forces:R:3:torques:R:3 separation_distance=3.5812672176308538 energy=-0.13444534563925517 pbc="F F F"
X       10.00000000      10.00000000      10.00000000       0.70710678       0.00000000       0.00000000       0.70710678       1.00000000       1.50000000       2.00000000       0.47527938       0.00000000       0.00000000      -0.00000000      -0.00000000      -0.00000000
X       13.58126722      10.00000000      10.00000000       0.70710678       0.00000000       0.00000000       0.70710678       1.00000000       1.50000000       2.00000000      -0.47527938      -0.00000000      -0.00000000      -0.00000000      -0.00000000      -0.00000000
2
Lattice="20.0 0.0 0.0 0.0 20.0 0.0 0.0 0.0 20.0" Properties=species:S:1:pos:R:3:quaternions:R:4:c_diameter\[1\]:R:1:c_diameter\[2\]:R:1:c_diameter\[3\]:R:1:forces:R:3:torques:R:3 separation_distance=3.59657177838996 energy=-0.12738261386889488 pbc="F F F"
X       10.00000000      10.00000000      10.00000000       0.70710678       0.00000000       0.00000000       0.70710678       1.00000000       1.50000000       2.00000000       0.44795035       0.00000000       0.00000000      -0.00000000      -0.00000000      -0.00000000
X       13.59657178      10.00000000      10.00000000       0.70710678       0.00000000       0.00000000       0.70710678       1.00000000       1.50000000       2.00000000      -0.44795035      -0.00000000      -0.00000000      -0.00000000      -0.00000000      -0.00000000
2
Lattice="20.0 0.0 0.0 0.0 20.0 0.0 0.0 0.0 20.0" Properties=species:S:1:pos:R:3:quaternions:R:4:c_diameter\[1\]:R:1:c_diameter\[2\]:R:1:c_diameter\[3\]:R:1:forces:R:3:torques:R:3 separation_distance=3.6118763391490663 energy=-0.12072585352718984 pbc="F F F"
X       10.00000000      10.00000000      10.00000000       0.70710678       0.00000000       0.00000000       0.70710678       1.00000000       1.50000000       2.00000000       0.42221401       0.00000000       0.00000000      -0.00000000      -0.00000000      -0.00000000
X       13.61187634      10.00000000      10.00000000       0.70710678       0.00000000       0.00000000       0.70710678       1.00000000       1.50000000       2.00000000      -0.42221401      -0.00000000      -0.00000000      -0.00000000      -0.00000000      -0.00000000
2
Lattice="20.0 0.0 0.0 0.0 20.0 0.0 0.0 0.0 20.0" Properties=species:S:1:pos:R:3:quaternions:R:4:c_diameter\[1\]:R:1:c_diameter\[2\]:R:1:c_diameter\[3\]:R:1:forces:R:3:torques:R:3 separation_distance=3.6271808999081725 energy=-0.11445128875215946 pbc="F F F"
X       10.00000000      10.00000000      10.00000000       0.70710678       0.00000000       0.00000000       0.70710678       1.00000000       1.50000000       2.00000000       0.39799195       0.00000000       0.00000000      -0.00000000      -0.00000000      -0.00000000
X       13.62718090      10.00000000      10.00000000       0.70710678       0.00000000       0.00000000       0.70710678       1.00000000       1.50000000       2.00000000      -0.39799195      -0.00000000      -0.00000000      -0.00000000      -0.00000000      -0.00000000
2
Lattice="20.0 0.0 0.0 0.0 20.0 0.0 0.0 0.0 20.0" Properties=species:S:1:pos:R:3:quaternions:R:4:c_diameter\[1\]:R:1:c_diameter\[2\]:R:1:c_diameter\[3\]:R:1:forces:R:3:torques:R:3 separation_distance=3.6424854606672787 energy=-0.10853634387965136 pbc="F F F"
X       10.00000000      10.00000000      10.00000000       0.70710678       0.00000000       0.00000000       0.70710678       1.00000000       1.50000000       2.00000000       0.37520591       0.00000000       0.00000000      -0.00000000      -0.00000000      -0.00000000
X       13.64248546      10.00000000      10.00000000       0.70710678       0.00000000       0.00000000       0.70710678       1.00000000       1.50000000       2.00000000      -0.37520591      -0.00000000      -0.00000000      -0.00000000      -0.00000000      -0.00000000
2
Lattice="20.0 0.0 0.0 0.0 20.0 0.0 0.0 0.0 20.0" Properties=species:S:1:pos:R:3:quaternions:R:4:c_diameter\[1\]:R:1:c_diameter\[2\]:R:1:c_diameter\[3\]:R:1:forces:R:3:torques:R:3 separation_distance=3.657790021426385 energy=-0.102959633133008 pbc="F F F"
X       10.00000000      10.00000000      10.00000000       0.70710678       0.00000000       0.00000000       0.70710678       1.00000000       1.50000000       2.00000000       0.35377879       0.00000000       0.00000000      -0.00000000      -0.00000000      -0.00000000
X       13.65779002      10.00000000      10.00000000       0.70710678       0.00000000       0.00000000       0.70710678       1.00000000       1.50000000       2.00000000      -0.35377879      -0.00000000      -0.00000000      -0.00000000      -0.00000000      -0.00000000
2
Lattice="20.0 0.0 0.0 0.0 20.0 0.0 0.0 0.0 20.0" Properties=species:S:1:pos:R:3:quaternions:R:4:c_diameter\[1\]:R:1:c_diameter\[2\]:R:1:c_diameter\[3\]:R:1:forces:R:3:torques:R:3 separation_distance=3.673094582185491 energy=-0.0977009377570755 pbc="F F F"
X       10.00000000      10.00000000      10.00000000       0.70710678       0.00000000       0.00000000       0.70710678       1.00000000       1.50000000       2.00000000       0.33363530       0.00000000       0.00000000      -0.00000000      -0.00000000      -0.00000000
X       13.67309458      10.00000000      10.00000000       0.70710678       0.00000000       0.00000000       0.70710678       1.00000000       1.50000000       2.00000000      -0.33363530      -0.00000000      -0.00000000      -0.00000000      -0.00000000      -0.00000000
2
Lattice="20.0 0.0 0.0 0.0 20.0 0.0 0.0 0.0 20.0" Properties=species:S:1:pos:R:3:quaternions:R:4:c_diameter\[1\]:R:1:c_diameter\[2\]:R:1:c_diameter\[3\]:R:1:forces:R:3:torques:R:3 separation_distance=3.688399142944597 energy=-0.09274117391151977 pbc="F F F"
X       10.00000000      10.00000000      10.00000000       0.70710678       0.00000000       0.00000000       0.70710678       1.00000000       1.50000000       2.00000000       0.31470248       0.00000000       0.00000000      -0.00000000      -0.00000000      -0.00000000
X       13.68839914      10.00000000      10.00000000       0.70710678       0.00000000       0.00000000       0.70710678       1.00000000       1.50000000       2.00000000      -0.31470248      -0.00000000      -0.00000000      -0.00000000      -0.00000000      -0.00000000
2
Lattice="20.0 0.0 0.0 0.0 20.0 0.0 0.0 0.0 20.0" Properties=species:S:1:pos:R:3:quaternions:R:4:c_diameter\[1\]:R:1:c_diameter\[2\]:R:1:c_diameter\[3\]:R:1:forces:R:3:torques:R:3 separation_distance=3.7037037037037033 energy=-0.08806235395666641 pbc="F F F"
X       10.00000000      10.00000000      10.00000000       0.70710678       0.00000000       0.00000000       0.70710678       1.00000000       1.50000000       2.00000000       0.29691008       0.00000000       0.00000000      -0.00000000      -0.00000000      -0.00000000
X       13.70370370      10.00000000      10.00000000       0.70710678       0.00000000       0.00000000       0.70710678       1.00000000       1.50000000       2.00000000      -0.29691008      -0.00000000      -0.00000000      -0.00000000      -0.00000000      -0.00000000
2
Lattice="20.0 0.0 0.0 0.0 20.0 0.0 0.0 0.0 20.0" Properties=species:S:1:pos:R:3:quaternions:R:4:c_diameter\[1\]:R:1:c_diameter\[2\]:R:1:c_diameter\[3\]:R:1:forces:R:3:torques:R:3 separation_distance=3.7190082644628095 energy=-0.08364754321502546 pbc="F F F"
X       10.00000000      10.00000000      10.00000000       0.70710678       0.00000000       0.00000000       0.70710678       1.00000000       1.50000000       2.00000000       0.28019079       0.00000000       0.00000000      -0.00000000      -0.00000000      -0.00000000
X       13.71900826      10.00000000      10.00000000       0.70710678       0.00000000       0.00000000       0.70710678       1.00000000       1.50000000       2.00000000      -0.28019079      -0.00000000      -0.00000000      -0.00000000      -0.00000000      -0.00000000
2
Lattice="20.0 0.0 0.0 0.0 20.0 0.0 0.0 0.0 20.0" Properties=species:S:1:pos:R:3:quaternions:R:4:c_diameter\[1\]:R:1:c_diameter\[2\]:R:1:c_diameter\[3\]:R:1:forces:R:3:torques:R:3 separation_distance=3.7343128252219158 energy=-0.07948081384815632 pbc="F F F"
X       10.00000000      10.00000000      10.00000000       0.70710678       0.00000000       0.00000000       0.70710678       1.00000000       1.50000000       2.00000000       0.26448036       0.00000000       0.00000000      -0.00000000      -0.00000000      -0.00000000
X       13.73431283      10.00000000      10.00000000       0.70710678       0.00000000       0.00000000       0.70710678       1.00000000       1.50000000       2.00000000      -0.26448036      -0.00000000      -0.00000000      -0.00000000      -0.00000000      -0.00000000
2
Lattice="20.0 0.0 0.0 0.0 20.0 0.0 0.0 0.0 20.0" Properties=species:S:1:pos:R:3:quaternions:R:4:c_diameter\[1\]:R:1:c_diameter\[2\]:R:1:c_diameter\[3\]:R:1:forces:R:3:torques:R:3 separation_distance=3.749617385981022 energy=-0.07554719713120536 pbc="F F F"
X       10.00000000      10.00000000      10.00000000       0.70710678       0.00000000       0.00000000       0.70710678       1.00000000       1.50000000       2.00000000       0.24971771       0.00000000       0.00000000      -0.00000000      -0.00000000      -0.00000000
X       13.74961739      10.00000000      10.00000000       0.70710678       0.00000000       0.00000000       0.70710678       1.00000000       1.50000000       2.00000000      -0.24971771      -0.00000000      -0.00000000      -0.00000000      -0.00000000      -0.00000000
2
Lattice="20.0 0.0 0.0 0.0 20.0 0.0 0.0 0.0 20.0" Properties=species:S:1:pos:R:3:quaternions:R:4:c_diameter\[1\]:R:1:c_diameter\[2\]:R:1:c_diameter\[3\]:R:1:forces:R:3:torques:R:3 separation_distance=3.7649219467401283 energy=-0.07183263511993153 pbc="F F F"
X       10.00000000      10.00000000      10.00000000       0.70710678       0.00000000       0.00000000       0.70710678       1.00000000       1.50000000       2.00000000       0.23584490       0.00000000       0.00000000      -0.00000000      -0.00000000      -0.00000000
X       13.76492195      10.00000000      10.00000000       0.70710678       0.00000000       0.00000000       0.70710678       1.00000000       1.50000000       2.00000000      -0.23584490      -0.00000000      -0.00000000      -0.00000000      -0.00000000      -0.00000000
2
Lattice="20.0 0.0 0.0 0.0 20.0 0.0 0.0 0.0 20.0" Properties=species:S:1:pos:R:3:quaternions:R:4:c_diameter\[1\]:R:1:c_diameter\[2\]:R:1:c_diameter\[3\]:R:1:forces:R:3:torques:R:3 separation_distance=3.7802265074992345 energy=-0.06832393247403111 pbc="F F F"
X       10.00000000      10.00000000      10.00000000       0.70710678       0.00000000       0.00000000       0.70710678       1.00000000       1.50000000       2.00000000       0.22280713       0.00000000       0.00000000      -0.00000000      -0.00000000      -0.00000000
X       13.78022651      10.00000000      10.00000000       0.70710678       0.00000000       0.00000000       0.70710678       1.00000000       1.50000000       2.00000000      -0.22280713      -0.00000000      -0.00000000      -0.00000000      -0.00000000      -0.00000000
2
Lattice="20.0 0.0 0.0 0.0 20.0 0.0 0.0 0.0 20.0" Properties=species:S:1:pos:R:3:quaternions:R:4:c_diameter\[1\]:R:1:c_diameter\[2\]:R:1:c_diameter\[3\]:R:1:forces:R:3:torques:R:3 separation_distance=3.7955310682583407 energy=-0.0650087090153512 pbc="F F F"
X       10.00000000      10.00000000      10.00000000       0.70710678       0.00000000       0.00000000       0.70710678       1.00000000       1.50000000       2.00000000       0.21055267       0.00000000       0.00000000      -0.00000000      -0.00000000      -0.00000000
X       13.79553107      10.00000000      10.00000000       0.70710678       0.00000000       0.00000000       0.70710678       1.00000000       1.50000000       2.00000000      -0.21055267      -0.00000000      -0.00000000      -0.00000000      -0.00000000      -0.00000000
2
Lattice="20.0 0.0 0.0 0.0 20.0 0.0 0.0 0.0 20.0" Properties=species:S:1:pos:R:3:quaternions:R:4:c_diameter\[1\]:R:1:c_diameter\[2\]:R:1:c_diameter\[3\]:R:1:forces:R:3:torques:R:3 separation_distance=3.810835629017447 energy=-0.06187535345143273 pbc="F F F"
X       10.00000000      10.00000000      10.00000000       0.70710678       0.00000000       0.00000000       0.70710678       1.00000000       1.50000000       2.00000000       0.19903275       0.00000000       0.00000000      -0.00000000      -0.00000000      -0.00000000
X       13.81083563      10.00000000      10.00000000       0.70710678       0.00000000       0.00000000       0.70710678       1.00000000       1.50000000       2.00000000      -0.19903275      -0.00000000      -0.00000000      -0.00000000      -0.00000000      -0.00000000
2
Lattice="20.0 0.0 0.0 0.0 20.0 0.0 0.0 0.0 20.0" Properties=species:S:1:pos:R:3:quaternions:R:4:c_diameter\[1\]:R:1:c_diameter\[2\]:R:1:c_diameter\[3\]:R:1:forces:R:3:torques:R:3 separation_distance=3.8261401897765532 energy=-0.05891297857670707 pbc="F F F"
X       10.00000000      10.00000000      10.00000000       0.70710678       0.00000000       0.00000000       0.70710678       1.00000000       1.50000000       2.00000000       0.18820150       0.00000000       0.00000000      -0.00000000      -0.00000000      -0.00000000
X       13.82614019      10.00000000      10.00000000       0.70710678       0.00000000       0.00000000       0.70710678       1.00000000       1.50000000       2.00000000      -0.18820150      -0.00000000      -0.00000000      -0.00000000      -0.00000000      -0.00000000
2
Lattice="20.0 0.0 0.0 0.0 20.0 0.0 0.0 0.0 20.0" Properties=species:S:1:pos:R:3:quaternions:R:4:c_diameter\[1\]:R:1:c_diameter\[2\]:R:1:c_diameter\[3\]:R:1:forces:R:3:torques:R:3 separation_distance=3.8414447505356595 energy=-0.05611137816985042 pbc="F F F"
X       10.00000000      10.00000000      10.00000000       0.70710678       0.00000000       0.00000000       0.70710678       1.00000000       1.50000000       2.00000000       0.17801578       0.00000000       0.00000000      -0.00000000      -0.00000000      -0.00000000
X       13.84144475      10.00000000      10.00000000       0.70710678       0.00000000       0.00000000       0.70710678       1.00000000       1.50000000       2.00000000      -0.17801578      -0.00000000      -0.00000000      -0.00000000      -0.00000000      -0.00000000
2
Lattice="20.0 0.0 0.0 0.0 20.0 0.0 0.0 0.0 20.0" Properties=species:S:1:pos:R:3:quaternions:R:4:c_diameter\[1\]:R:1:c_diameter\[2\]:R:1:c_diameter\[3\]:R:1:forces:R:3:torques:R:3 separation_distance=3.8567493112947657 energy=-0.05346098573164478 pbc="F F F"
X       10.00000000      10.00000000      10.00000000       0.70710678       0.00000000       0.00000000       0.70710678       1.00000000       1.50000000       2.00000000       0.16843510       0.00000000       0.00000000      -0.00000000      -0.00000000      -0.00000000
X       13.85674931      10.00000000      10.00000000       0.70710678       0.00000000       0.00000000       0.70710678       1.00000000       1.50000000       2.00000000      -0.16843510      -0.00000000      -0.00000000      -0.00000000      -0.00000000      -0.00000000
2
Lattice="20.0 0.0 0.0 0.0 20.0 0.0 0.0 0.0 20.0" Properties=species:S:1:pos:R:3:quaternions:R:4:c_diameter\[1\]:R:1:c_diameter\[2\]:R:1:c_diameter\[3\]:R:1:forces:R:3:torques:R:3 separation_distance=3.872053872053872 energy=-0.05095283514942267 pbc="F F F"
X       10.00000000      10.00000000      10.00000000       0.70710678       0.00000000       0.00000000       0.70710678       1.00000000       1.50000000       2.00000000       0.15942148       0.00000000       0.00000000      -0.00000000      -0.00000000      -0.00000000
X       13.87205387      10.00000000      10.00000000       0.70710678       0.00000000       0.00000000       0.70710678       1.00000000       1.50000000       2.00000000      -0.15942148      -0.00000000      -0.00000000      -0.00000000      -0.00000000      -0.00000000
2
Lattice="20.0 0.0 0.0 0.0 20.0 0.0 0.0 0.0 20.0" Properties=species:S:1:pos:R:3:quaternions:R:4:c_diameter\[1\]:R:1:c_diameter\[2\]:R:1:c_diameter\[3\]:R:1:forces:R:3:torques:R:3 separation_distance=3.887358432812978 energy=-0.04857852332873104 pbc="F F F"
X       10.00000000      10.00000000      10.00000000       0.70710678       0.00000000       0.00000000       0.70710678       1.00000000       1.50000000       2.00000000       0.15093931       0.00000000       0.00000000      -0.00000000      -0.00000000      -0.00000000
X       13.88735843      10.00000000      10.00000000       0.70710678       0.00000000       0.00000000       0.70710678       1.00000000       1.50000000       2.00000000      -0.15093931      -0.00000000      -0.00000000      -0.00000000      -0.00000000      -0.00000000
2
Lattice="20.0 0.0 0.0 0.0 20.0 0.0 0.0 0.0 20.0" Properties=species:S:1:pos:R:3:quaternions:R:4:c_diameter\[1\]:R:1:c_diameter\[2\]:R:1:c_diameter\[3\]:R:1:forces:R:3:torques:R:3 separation_distance=3.902662993572084 energy=-0.04633017479774235 pbc="F F F"
X       10.00000000      10.00000000      10.00000000       0.70710678       0.00000000       0.00000000       0.70710678       1.00000000       1.50000000       2.00000000       0.14295522       0.00000000       0.00000000      -0.00000000      -0.00000000      -0.00000000
X       13.90266299      10.00000000      10.00000000       0.70710678       0.00000000       0.00000000       0.70710678       1.00000000       1.50000000       2.00000000      -0.14295522      -0.00000000      -0.00000000      -0.00000000      -0.00000000      -0.00000000
2
Lattice="20.0 0.0 0.0 0.0 20.0 0.0 0.0 0.0 20.0" Properties=species:S:1:pos:R:3:quaternions:R:4:c_diameter\[1\]:R:1:c_diameter\[2\]:R:1:c_diameter\[3\]:R:1:forces:R:3:torques:R:3 separation_distance=3.9179675543311903 energy=-0.044200408263147695 pbc="F F F"
X       10.00000000      10.00000000      10.00000000       0.70710678       0.00000000       0.00000000       0.70710678       1.00000000       1.50000000       2.00000000       0.13543798       0.00000000       0.00000000      -0.00000000      -0.00000000      -0.00000000
X       13.91796755      10.00000000      10.00000000       0.70710678       0.00000000       0.00000000       0.70710678       1.00000000       1.50000000       2.00000000      -0.13543798      -0.00000000      -0.00000000      -0.00000000      -0.00000000      -0.00000000
2
Lattice="20.0 0.0 0.0 0.0 20.0 0.0 0.0 0.0 20.0" Properties=species:S:1:pos:R:3:quaternions:R:4:c_diameter\[1\]:R:1:c_diameter\[2\]:R:1:c_diameter\[3\]:R:1:forces:R:3:torques:R:3 separation_distance=3.9332721150902965 energy=-0.042182305076148376 pbc="F F F"
X       10.00000000      10.00000000      10.00000000       0.70710678       0.00000000       0.00000000       0.70710678       1.00000000       1.50000000       2.00000000       0.12835834       0.00000000       0.00000000      -0.00000000      -0.00000000      -0.00000000
X       13.93327212      10.00000000      10.00000000       0.70710678       0.00000000       0.00000000       0.70710678       1.00000000       1.50000000       2.00000000      -0.12835834      -0.00000000      -0.00000000      -0.00000000      -0.00000000      -0.00000000
2
Lattice="20.0 0.0 0.0 0.0 20.0 0.0 0.0 0.0 20.0" Properties=species:S:1:pos:R:3:quaternions:R:4:c_diameter\[1\]:R:1:c_diameter\[2\]:R:1:c_diameter\[3\]:R:1:forces:R:3:torques:R:3 separation_distance=3.9485766758494028 energy=-0.040269379552378574 pbc="F F F"
X       10.00000000      10.00000000      10.00000000       0.70710678       0.00000000       0.00000000       0.70710678       1.00000000       1.50000000       2.00000000       0.12168895       0.00000000       0.00000000      -0.00000000      -0.00000000      -0.00000000
X       13.94857668      10.00000000      10.00000000       0.70710678       0.00000000       0.00000000       0.70710678       1.00000000       1.50000000       2.00000000      -0.12168895      -0.00000000      -0.00000000      -0.00000000      -0.00000000      -0.00000000
2
Lattice="20.0 0.0 0.0 0.0 20.0 0.0 0.0 0.0 20.0" Properties=species:S:1:pos:R:3:quaternions:R:4:c_diameter\[1\]:R:1:c_diameter\[2\]:R:1:c_diameter\[3\]:R:1:forces:R:3:torques:R:3 separation_distance=3.963881236608509 energy=-0.038455551079065876 pbc="F F F"
X       10.00000000      10.00000000      10.00000000       0.70710678       0.00000000       0.00000000       0.70710678       1.00000000       1.50000000       2.00000000       0.11540422       0.00000000       0.00000000      -0.00000000      -0.00000000      -0.00000000
X       13.96388124      10.00000000      10.00000000       0.70710678       0.00000000       0.00000000       0.70710678       1.00000000       1.50000000       2.00000000      -0.11540422      -0.00000000      -0.00000000      -0.00000000      -0.00000000      -0.00000000
2
Lattice="20.0 0.0 0.0 0.0 20.0 0.0 0.0 0.0 20.0" Properties=species:S:1:pos:R:3:quaternions:R:4:c_diameter\[1\]:R:1:c_diameter\[2\]:R:1:c_diameter\[3\]:R:1:forces:R:3:torques:R:3 separation_distance=3.9791857973676152 energy=-0.03673511793558546 pbc="F F F"
X       10.00000000      10.00000000      10.00000000       0.70710678       0.00000000       0.00000000       0.70710678       1.00000000       1.50000000       2.00000000       0.10948019       0.00000000       0.00000000      -0.00000000      -0.00000000      -0.00000000
X       13.97918580      10.00000000      10.00000000       0.70710678       0.00000000       0.00000000       0.70710678       1.00000000       1.50000000       2.00000000      -0.10948019      -0.00000000      -0.00000000      -0.00000000      -0.00000000      -0.00000000
2
Lattice="20.0 0.0 0.0 0.0 20.0 0.0 0.0 0.0 20.0" Properties=species:S:1:pos:R:3:quaternions:R:4:c_diameter\[1\]:R:1:c_diameter\[2\]:R:1:c_diameter\[3\]:R:1:forces:R:3:torques:R:3 separation_distance=3.9944903581267215 energy=-0.035102732749076125 pbc="F F F"
X       10.00000000      10.00000000      10.00000000       0.70710678       0.00000000       0.00000000       0.70710678       1.00000000       1.50000000       2.00000000       0.10389450       0.00000000       0.00000000      -0.00000000      -0.00000000      -0.00000000
X       13.99449036      10.00000000      10.00000000       0.70710678       0.00000000       0.00000000       0.70710678       1.00000000       1.50000000       2.00000000      -0.10389450      -0.00000000      -0.00000000      -0.00000000      -0.00000000      -0.00000000
2
Lattice="20.0 0.0 0.0 0.0 20.0 0.0 0.0 0.0 20.0" Properties=species:S:1:pos:R:3:quaternions:R:4:c_diameter\[1\]:R:1:c_diameter\[2\]:R:1:c_diameter\[3\]:R:1:forces:R:3:torques:R:3 separation_distance=4.009794918885827 energy=-0.033553379504389316 pbc="F F F"
X       10.00000000      10.00000000      10.00000000       0.70710678       0.00000000       0.00000000       0.70710678       1.00000000       1.50000000       2.00000000       0.09862621       0.00000000       0.00000000      -0.00000000      -0.00000000      -0.00000000
X       14.00979492      10.00000000      10.00000000       0.70710678       0.00000000       0.00000000       0.70710678       1.00000000       1.50000000       2.00000000      -0.09862621      -0.00000000      -0.00000000      -0.00000000      -0.00000000      -0.00000000
2
Lattice="20.0 0.0 0.0 0.0 20.0 0.0 0.0 0.0 20.0" Properties=species:S:1:pos:R:3:quaternions:R:4:c_diameter\[1\]:R:1:c_diameter\[2\]:R:1:c_diameter\[3\]:R:1:forces:R:3:torques:R:3 separation_distance=4.0250994796449335 energy=-0.0320823520268628 pbc="F F F"
X       10.00000000      10.00000000      10.00000000       0.70710678       0.00000000       0.00000000       0.70710678       1.00000000       1.50000000       2.00000000       0.09365574       0.00000000       0.00000000      -0.00000000      -0.00000000      -0.00000000
X       14.02509948      10.00000000      10.00000000       0.70710678       0.00000000       0.00000000       0.70710678       1.00000000       1.50000000       2.00000000      -0.09365574      -0.00000000      -0.00000000      -0.00000000      -0.00000000      -0.00000000
2
Lattice="20.0 0.0 0.0 0.0 20.0 0.0 0.0 0.0 20.0" Properties=species:S:1:pos:R:3:quaternions:R:4:c_diameter\[1\]:R:1:c_diameter\[2\]:R:1:c_diameter\[3\]:R:1:forces:R:3:torques:R:3 separation_distance=4.04040404040404 energy=-0.030685233856882228 pbc="F F F"
X       10.00000000      10.00000000      10.00000000       0.70710678       0.00000000       0.00000000       0.70710678       1.00000000       1.50000000       2.00000000       0.08896479       0.00000000       0.00000000      -0.00000000      -0.00000000      -0.00000000
X       14.04040404      10.00000000      10.00000000       0.70710678       0.00000000       0.00000000       0.70710678       1.00000000       1.50000000       2.00000000      -0.08896479      -0.00000000      -0.00000000      -0.00000000      -0.00000000      -0.00000000
2
Lattice="20.0 0.0 0.0 0.0 20.0 0.0 0.0 0.0 20.0" Properties=species:S:1:pos:R:3:quaternions:R:4:c_diameter\[1\]:R:1:c_diameter\[2\]:R:1:c_diameter\[3\]:R:1:forces:R:3:torques:R:3 separation_distance=4.055708601163146 energy=-0.029357879436603656 pbc="F F F"
X       10.00000000      10.00000000      10.00000000       0.70710678       0.00000000       0.00000000       0.70710678       1.00000000       1.50000000       2.00000000       0.08453625       0.00000000       0.00000000      -0.00000000      -0.00000000      -0.00000000
X       14.05570860      10.00000000      10.00000000       0.70710678       0.00000000       0.00000000       0.70710678       1.00000000       1.50000000       2.00000000      -0.08453625      -0.00000000      -0.00000000      -0.00000000      -0.00000000      -0.00000000
2
Lattice="20.0 0.0 0.0 0.0 20.0 0.0 0.0 0.0 20.0" Properties=species:S:1:pos:R:3:quaternions:R:4:c_diameter\[1\]:R:1:c_diameter\[2\]:R:1:c_diameter\[3\]:R:1:forces:R:3:torques:R:3 separation_distance=4.071013161922252 energy=-0.028096396531324737 pbc="F F F"
X       10.00000000      10.00000000      10.00000000       0.70710678       0.00000000       0.00000000       0.70710678       1.00000000       1.50000000       2.00000000       0.08035412       0.00000000       0.00000000      -0.00000000      -0.00000000      -0.00000000
X       14.07101316      10.00000000      10.00000000       0.70710678       0.00000000       0.00000000       0.70710678       1.00000000       1.50000000       2.00000000      -0.08035412      -0.00000000      -0.00000000      -0.00000000      -0.00000000      -0.00000000
2
Lattice="20.0 0.0 0.0 0.0 20.0 0.0 0.0 0.0 20.0" Properties=species:S:1:pos:R:3:quaternions:R:4:c_diameter\[1\]:R:1:c_diameter\[2\]:R:1:c_diameter\[3\]:R:1:forces:R:3:torques:R:3 separation_distance=4.0863177226813585 energy=-0.02689712981061077 pbc="F F F"
X       10.00000000      10.00000000      10.00000000       0.70710678       0.00000000       0.00000000       0.70710678       1.00000000       1.50000000       2.00000000       0.07640343       0.00000000       0.00000000      -0.00000000      -0.00000000      -0.00000000
X       14.08631772      10.00000000      10.00000000       0.70710678       0.00000000       0.00000000       0.70710678       1.00000000       1.50000000       2.00000000      -0.07640343      -0.00000000      -0.00000000      -0.00000000      -0.00000000      -0.00000000
2
Lattice="20.0 0.0 0.0 0.0 20.0 0.0 0.0 0.0 20.0" Properties=species:S:1:pos:R:3:quaternions:R:4:c_diameter\[1\]:R:1:c_diameter\[2\]:R:1:c_diameter\[3\]:R:1:forces:R:3:torques:R:3 separation_distance=4.101622283440465 energy=-0.025756645517253613 pbc="F F F"
X       10.00000000      10.00000000      10.00000000       0.70710678       0.00000000       0.00000000       0.70710678       1.00000000       1.50000000       2.00000000       0.07267018       0.00000000       0.00000000      -0.00000000      -0.00000000      -0.00000000
X       14.10162228      10.00000000      10.00000000       0.70710678       0.00000000       0.00000000       0.70710678       1.00000000       1.50000000       2.00000000      -0.07267018      -0.00000000      -0.00000000      -0.00000000      -0.00000000      -0.00000000
2
Lattice="20.0 0.0 0.0 0.0 20.0 0.0 0.0 0.0 20.0" Properties=species:S:1:pos:R:3:quaternions:R:4:c_diameter\[1\]:R:1:c_diameter\[2\]:R:1:c_diameter\[3\]:R:1:forces:R:3:torques:R:3 separation_distance=4.116926844199571 energy=-0.024671717155341683 pbc="F F F"
X       10.00000000      10.00000000      10.00000000       0.70710678       0.00000000       0.00000000       0.70710678       1.00000000       1.50000000       2.00000000       0.06914127       0.00000000       0.00000000      -0.00000000      -0.00000000      -0.00000000
X       14.11692684      10.00000000      10.00000000       0.70710678       0.00000000       0.00000000       0.70710678       1.00000000       1.50000000       2.00000000      -0.06914127      -0.00000000      -0.00000000      -0.00000000      -0.00000000      -0.00000000
2
Lattice="20.0 0.0 0.0 0.0 20.0 0.0 0.0 0.0 20.0" Properties=species:S:1:pos:R:3:quaternions:R:4:c_diameter\[1\]:R:1:c_diameter\[2\]:R:1:c_diameter\[3\]:R:1:forces:R:3:torques:R:3 separation_distance=4.132231404958677 energy=-0.023639312132053492 pbc="F F F"
X       10.00000000      10.00000000      10.00000000       0.70710678       0.00000000       0.00000000       0.70710678       1.00000000       1.50000000       2.00000000       0.06580445       0.00000000       0.00000000      -0.00000000      -0.00000000      -0.00000000
X       14.13223140      10.00000000      10.00000000       0.70710678       0.00000000       0.00000000       0.70710678       1.00000000       1.50000000       2.00000000      -0.06580445      -0.00000000      -0.00000000      -0.00000000      -0.00000000      -0.00000000
2
Lattice="20.0 0.0 0.0 0.0 20.0 0.0 0.0 0.0 20.0" Properties=species:S:1:pos:R:3:quaternions:R:4:c_diameter\[1\]:R:1:c_diameter\[2\]:R:1:c_diameter\[3\]:R:1:forces:R:3:torques:R:3 separation_distance=4.1475359657177835 energy=-0.02265657929117815 pbc="F F F"
X       10.00000000      10.00000000      10.00000000       0.70710678       0.00000000       0.00000000       0.70710678       1.00000000       1.50000000       2.00000000       0.06264826       0.00000000       0.00000000      -0.00000000      -0.00000000      -0.00000000
X       14.14753597      10.00000000      10.00000000       0.70710678       0.00000000       0.00000000       0.70710678       1.00000000       1.50000000       2.00000000      -0.06264826      -0.00000000      -0.00000000      -0.00000000      -0.00000000      -0.00000000
2
Lattice="20.0 0.0 0.0 0.0 20.0 0.0 0.0 0.0 20.0" Properties=species:S:1:pos:R:3:quaternions:R:4:c_diameter\[1\]:R:1:c_diameter\[2\]:R:1:c_diameter\[3\]:R:1:forces:R:3:torques:R:3 separation_distance=4.16284052647689 energy=-0.021720837279757824 pbc="F F F"
X       10.00000000      10.00000000      10.00000000       0.70710678       0.00000000       0.00000000       0.70710678       1.00000000       1.50000000       2.00000000       0.05966196       0.00000000       0.00000000      -0.00000000      -0.00000000      -0.00000000
X       14.16284053      10.00000000      10.00000000       0.70710678       0.00000000       0.00000000       0.70710678       1.00000000       1.50000000       2.00000000      -0.05966196      -0.00000000      -0.00000000      -0.00000000      -0.00000000      -0.00000000
2
Lattice="20.0 0.0 0.0 0.0 20.0 0.0 0.0 0.0 20.0" Properties=species:S:1:pos:R:3:quaternions:R:4:c_diameter\[1\]:R:1:c_diameter\[2\]:R:1:c_diameter\[3\]:R:1:forces:R:3:torques:R:3 separation_distance=4.178145087235996 energy=-0.02082956369259293 pbc="F F F"
X       10.00000000      10.00000000      10.00000000       0.70710678       0.00000000       0.00000000       0.70710678       1.00000000       1.50000000       2.00000000       0.05683551       0.00000000       0.00000000      -0.00000000      -0.00000000      -0.00000000
X       14.17814509      10.00000000      10.00000000       0.70710678       0.00000000       0.00000000       0.70710678       1.00000000       1.50000000       2.00000000      -0.05683551      -0.00000000      -0.00000000      -0.00000000      -0.00000000      -0.00000000
2
Lattice="20.0 0.0 0.0 0.0 20.0 0.0 0.0 0.0 20.0" Properties=species:S:1:pos:R:3:quaternions:R:4:c_diameter\[1\]:R:1:c_diameter\[2\]:R:1:c_diameter\[3\]:R:1:forces:R:3:torques:R:3 separation_distance=4.193449647995102 energy=-0.01998038494261985 pbc="F F F"
X       10.00000000      10.00000000      10.00000000       0.70710678       0.00000000       0.00000000       0.70710678       1.00000000       1.50000000       2.00000000       0.05415949       0.00000000       0.00000000      -0.00000000      -0.00000000      -0.00000000
X       14.19344965      10.00000000      10.00000000       0.70710678       0.00000000       0.00000000       0.70710678       1.00000000       1.50000000       2.00000000      -0.05415949      -0.00000000      -0.00000000      -0.00000000      -0.00000000      -0.00000000
2
Lattice="20.0 0.0 0.0 0.0 20.0 0.0 0.0 0.0 20.0" Properties=species:S:1:pos:R:3:quaternions:R:4:c_diameter\[1\]:R:1:c_diameter\[2\]:R:1:c_diameter\[3\]:R:1:forces:R:3:torques:R:3 separation_distance=4.2087542087542085 energy=-0.01917106680833601 pbc="F F F"
X       10.00000000      10.00000000      10.00000000       0.70710678       0.00000000       0.00000000       0.70710678       1.00000000       1.50000000       2.00000000       0.05162510       0.00000000       0.00000000      -0.00000000      -0.00000000      -0.00000000
X       14.20875421      10.00000000      10.00000000       0.70710678       0.00000000       0.00000000       0.70710678       1.00000000       1.50000000       2.00000000      -0.05162510      -0.00000000      -0.00000000      -0.00000000      -0.00000000      -0.00000000
2
Lattice="20.0 0.0 0.0 0.0 20.0 0.0 0.0 0.0 20.0" Properties=species:S:1:pos:R:3:quaternions:R:4:c_diameter\[1\]:R:1:c_diameter\[2\]:R:1:c_diameter\[3\]:R:1:forces:R:3:torques:R:3 separation_distance=4.224058769513315 energy=-0.01839950561249449 pbc="F F F"
X       10.00000000      10.00000000      10.00000000       0.70710678       0.00000000       0.00000000       0.70710678       1.00000000       1.50000000       2.00000000       0.04922408       0.00000000       0.00000000      -0.00000000      -0.00000000      -0.00000000
X       14.22405877      10.00000000      10.00000000       0.70710678       0.00000000       0.00000000       0.70710678       1.00000000       1.50000000       2.00000000      -0.04922408      -0.00000000      -0.00000000      -0.00000000      -0.00000000      -0.00000000
2
Lattice="20.0 0.0 0.0 0.0 20.0 0.0 0.0 0.0 20.0" Properties=species:S:1:pos:R:3:quaternions:R:4:c_diameter\[1\]:R:1:c_diameter\[2\]:R:1:c_diameter\[3\]:R:1:forces:R:3:torques:R:3 separation_distance=4.239363330272421 energy=-0.017663719989204685 pbc="F F F"
X       10.00000000      10.00000000      10.00000000       0.70710678       0.00000000       0.00000000       0.70710678       1.00000000       1.50000000       2.00000000       0.04694870       0.00000000       0.00000000      -0.00000000      -0.00000000      -0.00000000
X       14.23936333      10.00000000      10.00000000       0.70710678       0.00000000       0.00000000       0.70710678       1.00000000       1.50000000       2.00000000      -0.04694870      -0.00000000      -0.00000000      -0.00000000      -0.00000000      -0.00000000
2
Lattice="20.0 0.0 0.0 0.0 20.0 0.0 0.0 0.0 20.0" Properties=species:S:1:pos:R:3:quaternions:R:4:c_diameter\[1\]:R:1:c_diameter\[2\]:R:1:c_diameter\[3\]:R:1:forces:R:3:torques:R:3 separation_distance=4.254667891031527 energy=-0.01696184319935293 pbc="F F F"
X       10.00000000      10.00000000      10.00000000       0.70710678       0.00000000       0.00000000       0.70710678       1.00000000       1.50000000       2.00000000       0.04479171       0.00000000       0.00000000      -0.00000000      -0.00000000      -0.00000000
X       14.25466789      10.00000000      10.00000000       0.70710678       0.00000000       0.00000000       0.70710678       1.00000000       1.50000000       2.00000000      -0.04479171      -0.00000000      -0.00000000      -0.00000000      -0.00000000      -0.00000000
2
Lattice="20.0 0.0 0.0 0.0 20.0 0.0 0.0 0.0 20.0" Properties=species:S:1:pos:R:3:quaternions:R:4:c_diameter\[1\]:R:1:c_diameter\[2\]:R:1:c_diameter\[3\]:R:1:forces:R:3:torques:R:3 separation_distance=4.2699724517906334 energy=-0.01629211595689155 pbc="F F F"
X       10.00000000      10.00000000      10.00000000       0.70710678       0.00000000       0.00000000       0.70710678       1.00000000       1.50000000       2.00000000       0.04274630       0.00000000       0.00000000      -0.00000000      -0.00000000      -0.00000000
X       14.26997245      10.00000000      10.00000000       0.70710678       0.00000000       0.00000000       0.70710678       1.00000000       1.50000000       2.00000000      -0.04274630      -0.00000000      -0.00000000      -0.00000000      -0.00000000      -0.00000000
2
Lattice="20.0 0.0 0.0 0.0 20.0 0.0 0.0 0.0 20.0" Properties=species:S:1:pos:R:3:quaternions:R:4:c_diameter\[1\]:R:1:c_diameter\[2\]:R:1:c_diameter\[3\]:R:1:forces:R:3:torques:R:3 separation_distance=4.28527701254974 energy=-0.015652879731037572 pbc="F F F"
X       10.00000000      10.00000000      10.00000000       0.70710678       0.00000000       0.00000000       0.70710678       1.00000000       1.50000000       2.00000000       0.04080611       0.00000000       0.00000000      -0.00000000      -0.00000000      -0.00000000
X       14.28527701      10.00000000      10.00000000       0.70710678       0.00000000       0.00000000       0.70710678       1.00000000       1.50000000       2.00000000      -0.04080611      -0.00000000      -0.00000000      -0.00000000      -0.00000000      -0.00000000
2
Lattice="20.0 0.0 0.0 0.0 20.0 0.0 0.0 0.0 20.0" Properties=species:S:1:pos:R:3:quaternions:R:4:c_diameter\[1\]:R:1:c_diameter\[2\]:R:1:c_diameter\[3\]:R:1:forces:R:3:torques:R:3 separation_distance=4.300581573308845 energy=-0.015042570491772324 pbc="F F F"
X       10.00000000      10.00000000      10.00000000       0.70710678       0.00000000       0.00000000       0.70710678       1.00000000       1.50000000       2.00000000       0.03896516       0.00000000       0.00000000      -0.00000000      -0.00000000      -0.00000000
X       14.30058157      10.00000000      10.00000000       0.70710678       0.00000000       0.00000000       0.70710678       1.00000000       1.50000000       2.00000000      -0.03896516      -0.00000000      -0.00000000      -0.00000000      -0.00000000      -0.00000000
2
Lattice="20.0 0.0 0.0 0.0 20.0 0.0 0.0 0.0 20.0" Properties=species:S:1:pos:R:3:quaternions:R:4:c_diameter\[1\]:R:1:c_diameter\[2\]:R:1:c_diameter\[3\]:R:1:forces:R:3:torques:R:3 separation_distance=4.315886134067952 energy=-0.014459712868245276 pbc="F F F"
X       10.00000000      10.00000000      10.00000000       0.70710678       0.00000000       0.00000000       0.70710678       1.00000000       1.50000000       2.00000000       0.03721783       0.00000000       0.00000000      -0.00000000      -0.00000000      -0.00000000
X       14.31588613      10.00000000      10.00000000       0.70710678       0.00000000       0.00000000       0.70710678       1.00000000       1.50000000       2.00000000      -0.03721783      -0.00000000      -0.00000000      -0.00000000      -0.00000000      -0.00000000
2
Lattice="20.0 0.0 0.0 0.0 20.0 0.0 0.0 0.0 20.0" Properties=species:S:1:pos:R:3:quaternions:R:4:c_diameter\[1\]:R:1:c_diameter\[2\]:R:1:c_diameter\[3\]:R:1:forces:R:3:torques:R:3 separation_distance=4.3311906948270575 energy=-0.01390291469176326 pbc="F F F"
X       10.00000000      10.00000000      10.00000000       0.70710678       0.00000000       0.00000000       0.70710678       1.00000000       1.50000000       2.00000000       0.03555886       0.00000000       0.00000000      -0.00000000      -0.00000000      -0.00000000
X       14.33119069      10.00000000      10.00000000       0.70710678       0.00000000       0.00000000       0.70710678       1.00000000       1.50000000       2.00000000      -0.03555886      -0.00000000      -0.00000000      -0.00000000      -0.00000000      -0.00000000
2
Lattice="20.0 0.0 0.0 0.0 20.0 0.0 0.0 0.0 20.0" Properties=species:S:1:pos:R:3:quaternions:R:4:c_diameter\[1\]:R:1:c_diameter\[2\]:R:1:c_diameter\[3\]:R:1:forces:R:3:torques:R:3 separation_distance=4.346495255586165 energy=-0.013370861896991037 pbc="F F F"
X       10.00000000      10.00000000      10.00000000       0.70710678       0.00000000       0.00000000       0.70710678       1.00000000       1.50000000       2.00000000       0.03398331       0.00000000       0.00000000      -0.00000000      -0.00000000      -0.00000000
X       14.34649526      10.00000000      10.00000000       0.70710678       0.00000000       0.00000000       0.70710678       1.00000000       1.50000000       2.00000000      -0.03398331      -0.00000000      -0.00000000      -0.00000000      -0.00000000      -0.00000000
2
Lattice="20.0 0.0 0.0 0.0 20.0 0.0 0.0 0.0 20.0" Properties=species:S:1:pos:R:3:quaternions:R:4:c_diameter\[1\]:R:1:c_diameter\[2\]:R:1:c_diameter\[3\]:R:1:forces:R:3:torques:R:3 separation_distance=4.36179981634527 energy=-0.012862313756815128 pbc="F F F"
X       10.00000000      10.00000000      10.00000000       0.70710678       0.00000000       0.00000000       0.70710678       1.00000000       1.50000000       2.00000000       0.03248652       0.00000000       0.00000000      -0.00000000      -0.00000000      -0.00000000
X       14.36179982      10.00000000      10.00000000       0.70710678       0.00000000       0.00000000       0.70710678       1.00000000       1.50000000       2.00000000      -0.03248652      -0.00000000      -0.00000000      -0.00000000      -0.00000000      -0.00000000
2
Lattice="20.0 0.0 0.0 0.0 20.0 0.0 0.0 0.0 20.0" Properties=species:S:1:pos:R:3:quaternions:R:4:c_diameter\[1\]:R:1:c_diameter\[2\]:R:1:c_diameter\[3\]:R:1:forces:R:3:torques:R:3 separation_distance=4.377104377104377 energy=-0.012376098428022116 pbc="F F F"
X       10.00000000      10.00000000      10.00000000       0.70710678       0.00000000       0.00000000       0.70710678       1.00000000       1.50000000       2.00000000       0.03106415       0.00000000       0.00000000      -0.00000000      -0.00000000      -0.00000000
X       14.37710438      10.00000000      10.00000000       0.70710678       0.00000000       0.00000000       0.70710678       1.00000000       1.50000000       2.00000000      -0.03106415      -0.00000000      -0.00000000      -0.00000000      -0.00000000      -0.00000000
2
Lattice="20.0 0.0 0.0 0.0 20.0 0.0 0.0 0.0 20.0" Properties=species:S:1:pos:R:3:quaternions:R:4:c_diameter\[1\]:R:1:c_diameter\[2\]:R:1:c_diameter\[3\]:R:1:forces:R:3:torques:R:3 separation_distance=4.3924089378634825 energy=-0.011911108786537568 pbc="F F F"
X       10.00000000      10.00000000      10.00000000       0.70710678       0.00000000       0.00000000       0.70710678       1.00000000       1.50000000       2.00000000       0.02971209       0.00000000       0.00000000      -0.00000000      -0.00000000      -0.00000000
X       14.39240894      10.00000000      10.00000000       0.70710678       0.00000000       0.00000000       0.70710678       1.00000000       1.50000000       2.00000000      -0.02971209      -0.00000000      -0.00000000      -0.00000000      -0.00000000      -0.00000000
2
Lattice="20.0 0.0 0.0 0.0 20.0 0.0 0.0 0.0 20.0" Properties=species:S:1:pos:R:3:quaternions:R:4:c_diameter\[1\]:R:1:c_diameter\[2\]:R:1:c_diameter\[3\]:R:1:forces:R:3:torques:R:3 separation_distance=4.407713498622589 energy=-0.011466298532451479 pbc="F F F"
X       10.00000000      10.00000000      10.00000000       0.70710678       0.00000000       0.00000000       0.70710678       1.00000000       1.50000000       2.00000000       0.02842648       0.00000000       0.00000000      -0.00000000      -0.00000000      -0.00000000
X       14.40771350      10.00000000      10.00000000       0.70710678       0.00000000       0.00000000       0.70710678       1.00000000       1.50000000       2.00000000      -0.02842648      -0.00000000      -0.00000000      -0.00000000      -0.00000000      -0.00000000
2
Lattice="20.0 0.0 0.0 0.0 20.0 0.0 0.0 0.0 20.0" Properties=species:S:1:pos:R:3:quaternions:R:4:c_diameter\[1\]:R:1:c_diameter\[2\]:R:1:c_diameter\[3\]:R:1:forces:R:3:torques:R:3 separation_distance=4.423018059381695 energy=-0.011040678546442521 pbc="F F F"
X       10.00000000      10.00000000      10.00000000       0.70710678       0.00000000       0.00000000       0.70710678       1.00000000       1.50000000       2.00000000       0.02720372       0.00000000       0.00000000      -0.00000000      -0.00000000      -0.00000000
X       14.42301806      10.00000000      10.00000000       0.70710678       0.00000000       0.00000000       0.70710678       1.00000000       1.50000000       2.00000000      -0.02720372      -0.00000000      -0.00000000      -0.00000000      -0.00000000      -0.00000000
2
Lattice="20.0 0.0 0.0 0.0 20.0 0.0 0.0 0.0 20.0" Properties=species:S:1:pos:R:3:quaternions:R:4:c_diameter\[1\]:R:1:c_diameter\[2\]:R:1:c_diameter\[3\]:R:1:forces:R:3:torques:R:3 separation_distance=4.438322620140801 energy=-0.010633313480498605 pbc="F F F"
X       10.00000000      10.00000000      10.00000000       0.70710678       0.00000000       0.00000000       0.70710678       1.00000000       1.50000000       2.00000000       0.02604038       0.00000000       0.00000000      -0.00000000      -0.00000000      -0.00000000
X       14.43832262      10.00000000      10.00000000       0.70710678       0.00000000       0.00000000       0.70710678       1.00000000       1.50000000       2.00000000      -0.02604038      -0.00000000      -0.00000000      -0.00000000      -0.00000000      -0.00000000
2
Lattice="20.0 0.0 0.0 0.0 20.0 0.0 0.0 0.0 20.0" Properties=species:S:1:pos:R:3:quaternions:R:4:c_diameter\[1\]:R:1:c_diameter\[2\]:R:1:c_diameter\[3\]:R:1:forces:R:3:torques:R:3 separation_distance=4.4536271808999075 energy=-0.010243318567032028 pbc="F F F"
X       10.00000000      10.00000000      10.00000000       0.70710678       0.00000000       0.00000000       0.70710678       1.00000000       1.50000000       2.00000000       0.02493327       0.00000000       0.00000000      -0.00000000      -0.00000000      -0.00000000
X       14.45362718      10.00000000      10.00000000       0.70710678       0.00000000       0.00000000       0.70710678       1.00000000       1.50000000       2.00000000      -0.02493327      -0.00000000      -0.00000000      -0.00000000      -0.00000000      -0.00000000
2
Lattice="20.0 0.0 0.0 0.0 20.0 0.0 0.0 0.0 20.0" Properties=species:S:1:pos:R:3:quaternions:R:4:c_diameter\[1\]:R:1:c_diameter\[2\]:R:1:c_diameter\[3\]:R:1:forces:R:3:torques:R:3 separation_distance=4.468931741659014 energy=-0.009869856631601562 pbc="F F F"
X       10.00000000      10.00000000      10.00000000       0.70710678       0.00000000       0.00000000       0.70710678       1.00000000       1.50000000       2.00000000       0.02387936       0.00000000       0.00000000      -0.00000000      -0.00000000      -0.00000000
X       14.46893174      10.00000000      10.00000000       0.70710678       0.00000000       0.00000000       0.70710678       1.00000000       1.50000000       2.00000000      -0.02387936      -0.00000000      -0.00000000      -0.00000000      -0.00000000      -0.00000000
2
Lattice="20.0 0.0 0.0 0.0 20.0 0.0 0.0 0.0 20.0" Properties=species:S:1:pos:R:3:quaternions:R:4:c_diameter\[1\]:R:1:c_diameter\[2\]:R:1:c_diameter\[3\]:R:1:forces:R:3:torques:R:3 separation_distance=4.48423630241812 energy=-0.009512135295491594 pbc="F F F"
X       10.00000000      10.00000000      10.00000000       0.70710678       0.00000000       0.00000000       0.70710678       1.00000000       1.50000000       2.00000000       0.02287583       0.00000000       0.00000000      -0.00000000      -0.00000000      -0.00000000
X       14.48423630      10.00000000      10.00000000       0.70710678       0.00000000       0.00000000       0.70710678       1.00000000       1.50000000       2.00000000      -0.02287583      -0.00000000      -0.00000000      -0.00000000      -0.00000000      -0.00000000
2
Lattice="20.0 0.0 0.0 0.0 20.0 0.0 0.0 0.0 20.0" Properties=species:S:1:pos:R:3:quaternions:R:4:c_diameter\[1\]:R:1:c_diameter\[2\]:R:1:c_diameter\[3\]:R:1:forces:R:3:torques:R:3 separation_distance=4.499540863177226 energy=-0.00916940435536218 pbc="F F F"
X       10.00000000      10.00000000      10.00000000       0.70710678       0.00000000       0.00000000       0.70710678       1.00000000       1.50000000       2.00000000       0.02191999       0.00000000       0.00000000      -0.00000000      -0.00000000      -0.00000000
X       14.49954086      10.00000000      10.00000000       0.70710678       0.00000000       0.00000000       0.70710678       1.00000000       1.50000000       2.00000000      -0.02191999      -0.00000000      -0.00000000      -0.00000000      -0.00000000      -0.00000000
2
Lattice="20.0 0.0 0.0 0.0 20.0 0.0 0.0 0.0 20.0" Properties=species:S:1:pos:R:3:quaternions:R:4:c_diameter\[1\]:R:1:c_diameter\[2\]:R:1:c_diameter\[3\]:R:1:forces:R:3:torques:R:3 separation_distance=4.5148454239363325 energy=-0.008840953328079491 pbc="F F F"
X       10.00000000      10.00000000      10.00000000       0.70710678       0.00000000       0.00000000       0.70710678       1.00000000       1.50000000       2.00000000       0.02100932       0.00000000       0.00000000      -0.00000000      -0.00000000      -0.00000000
X       14.51484542      10.00000000      10.00000000       0.70710678       0.00000000       0.00000000       0.70710678       1.00000000       1.50000000       2.00000000      -0.02100932      -0.00000000      -0.00000000      -0.00000000      -0.00000000      -0.00000000
2
Lattice="20.0 0.0 0.0 0.0 20.0 0.0 0.0 0.0 20.0" Properties=species:S:1:pos:R:3:quaternions:R:4:c_diameter\[1\]:R:1:c_diameter\[2\]:R:1:c_diameter\[3\]:R:1:forces:R:3:torques:R:3 separation_distance=4.530149984695439 energy=-0.008526109149668842 pbc="F F F"
X       10.00000000      10.00000000      10.00000000       0.70710678       0.00000000       0.00000000       0.70710678       1.00000000       1.50000000       2.00000000       0.02014146       0.00000000       0.00000000      -0.00000000      -0.00000000      -0.00000000
X       14.53014998      10.00000000      10.00000000       0.70710678       0.00000000       0.00000000       0.70710678       1.00000000       1.50000000       2.00000000      -0.02014146      -0.00000000      -0.00000000      -0.00000000      -0.00000000      -0.00000000
2
Lattice="20.0 0.0 0.0 0.0 20.0 0.0 0.0 0.0 20.0" Properties=species:S:1:pos:R:3:quaternions:R:4:c_diameter\[1\]:R:1:c_diameter\[2\]:R:1:c_diameter\[3\]:R:1:forces:R:3:torques:R:3 separation_distance=4.545454545454545 energy=-0.008224234018104924 pbc="F F F"
X       10.00000000      10.00000000      10.00000000       0.70710678       0.00000000       0.00000000       0.70710678       1.00000000       1.50000000       2.00000000       0.01931416       0.00000000       0.00000000      -0.00000000      -0.00000000      -0.00000000
X       14.54545455      10.00000000      10.00000000       0.70710678       0.00000000       0.00000000       0.70710678       1.00000000       1.50000000       2.00000000      -0.01931416      -0.00000000      -0.00000000      -0.00000000      -0.00000000      -0.00000000
