2
Lattice="20.0 0.0 0.0 0.0 20.0 0.0 0.0 0.0 20.0" Properties=species:S:1:pos:R:3:quaternions:R:4:c_diameter[1]:R:1:c_diameter[2]:R:1:c_diameter[3]:R:1:angles:R:1:torques:R:3:forces:R:3 separation_distance=2.4 energy=-0.5172052831817229 pbc="F F F"
X       10.00000000      10.00000000      10.00000000       1.00000000       0.00000000       0.00000000       0.00000000       1.00000000       1.50000000       2.00000000       0.00000000      -0.00000000      -0.00000000      -0.00000000       1.87712216       0.00000000       0.00000000
X       12.40000000      10.00000000      10.00000000       1.00000000       0.00000000       0.00000000       0.00000000       1.00000000       1.50000000       2.00000000       0.00000000      -0.00000000      -0.00000000      -0.00000000      -1.87712216      -0.00000000      -0.00000000
2
Lattice="20.0 0.0 0.0 0.0 20.0 0.0 0.0 0.0 20.0" Properties=species:S:1:pos:R:3:quaternions:R:4:c_diameter[1]:R:1:c_diameter[2]:R:1:c_diameter[3]:R:1:angles:R:1:torques:R:3:forces:R:3 separation_distance=2.4 energy=-0.5962164900413728 pbc="F F F"
X       10.00000000      10.00000000      10.00000000       1.00000000       0.00000000       0.00000000       0.00000000       1.00000000       1.50000000       2.00000000       0.00000000      -0.00000000      -0.00000000      -0.18275410       2.12063908      -0.11987249       0.00000000
X       12.40000000      10.00000000      10.00000000       0.98480775       0.00000000       0.00000000       0.17364818       1.00000000       1.50000000       2.00000000       0.34906585      -0.00000000      -0.00000000       0.47094926      -2.12063908       0.11987249      -0.00000000
2
Lattice="20.0 0.0 0.0 0.0 20.0 0.0 0.0 0.0 20.0" Properties=species:S:1:pos:R:3:quaternions:R:4:c_diameter[1]:R:1:c_diameter[2]:R:1:c_diameter[3]:R:1:angles:R:1:torques:R:3:forces:R:3 separation_distance=2.4 energy=-0.8331280635530233 pbc="F F F"
X       10.00000000      10.00000000      10.00000000       1.00000000       0.00000000       0.00000000       0.00000000       1.00000000       1.50000000       2.00000000       0.00000000      -0.00000000      -0.00000000      -0.23428010       2.05935882      -0.18518430       0.00000000
X       12.40000000      10.00000000      10.00000000       0.93969262       0.00000000       0.00000000       0.34202014       1.00000000       1.50000000       2.00000000       0.69813170      -0.00000000      -0.00000000       0.61333960      -2.05935882       0.18518430      -0.00000000
2
Lattice="20.0 0.0 0.0 0.0 20.0 0.0 0.0 0.0 20.0" Properties=species:S:1:pos:R:3:quaternions:R:4:c_diameter[1]:R:1:c_diameter[2]:R:1:c_diameter[3]:R:1:angles:R:1:torques:R:3:forces:R:3 separation_distance=2.4 energy=-0.17989989547094615 pbc="F F F"
X       10.00000000      10.00000000      10.00000000       1.00000000       0.00000000       0.00000000       0.00000000       1.00000000       1.50000000       2.00000000       0.00000000      -0.00000000      -0.00000000       2.68886550     -15.73031789       2.40104784       0.00000000
X       12.40000000      10.00000000      10.00000000       0.86602540       0.00000000       0.00000000       0.50000000       1.00000000       1.50000000       2.00000000       1.04719755      -0.00000000      -0.00000000      -8.93148458      15.73031789      -2.40104784      -0.00000000
2
Lattice="20.0 0.0 0.0 0.0 20.0 0.0 0.0 0.0 20.0" Properties=species:S:1:pos:R:3:quaternions:R:4:c_diameter[1]:R:1:c_diameter[2]:R:1:c_diameter[3]:R:1:angles:R:1:torques:R:3:forces:R:3 separation_distance=2.4 energy=-0.17989989547093915 pbc="F F F"
X       10.00000000      10.00000000      10.00000000       1.00000000       0.00000000       0.00000000       0.00000000       1.00000000       1.50000000       2.00000000       0.00000000      -0.00000000      -0.00000000      -2.68886550     -15.73031789      -2.40104784       0.00000000
X       12.40000000      10.00000000      10.00000000       0.50000000       0.00000000       0.00000000       0.86602540       1.00000000       1.50000000       2.00000000       2.09439510      -0.00000000      -0.00000000       8.93148458      15.73031789       2.40104784      -0.00000000
2
Lattice="20.0 0.0 0.0 0.0 20.0 0.0 0.0 0.0 20.0" Properties=species:S:1:pos:R:3:quaternions:R:4:c_diameter[1]:R:1:c_diameter[2]:R:1:c_diameter[3]:R:1:angles:R:1:torques:R:3:forces:R:3 separation_distance=2.4 energy=-0.833128063553023 pbc="F F F"
X       10.00000000      10.00000000      10.00000000       1.00000000       0.00000000       0.00000000       0.00000000       1.00000000       1.50000000       2.00000000       0.00000000      -0.00000000      -0.00000000       0.23428010       2.05935882       0.18518430       0.00000000
X       12.40000000      10.00000000      10.00000000       0.34202014       0.00000000       0.00000000       0.93969262       1.00000000       1.50000000       2.00000000       2.44346095      -0.00000000      -0.00000000      -0.61333960      -2.05935882      -0.18518430      -0.00000000
2
Lattice="20.0 0.0 0.0 0.0 20.0 0.0 0.0 0.0 20.0" Properties=species:S:1:pos:R:3:quaternions:R:4:c_diameter[1]:R:1:c_diameter[2]:R:1:c_diameter[3]:R:1:angles:R:1:torques:R:3:forces:R:3 separation_distance=2.4 energy=-0.5962164900413713 pbc="F F F"
X       10.00000000      10.00000000      10.00000000       1.00000000       0.00000000       0.00000000       0.00000000       1.00000000       1.50000000       2.00000000       0.00000000      -0.00000000      -0.00000000       0.18275410       2.12063908       0.11987249       0.00000000
X       12.40000000      10.00000000      10.00000000       0.17364818       0.00000000       0.00000000       0.98480775       1.00000000       1.50000000       2.00000000       2.79252680      -0.00000000      -0.00000000      -0.47094926      -2.12063908      -0.11987249      -0.00000000
2
Lattice="20.0 0.0 0.0 0.0 20.0 0.0 0.0 0.0 20.0" Properties=species:S:1:pos:R:3:quaternions:R:4:c_diameter[1]:R:1:c_diameter[2]:R:1:c_diameter[3]:R:1:angles:R:1:torques:R:3:forces:R:3 separation_distance=2.4 energy=-0.5172052831817229 pbc="F F F"
X       10.00000000      10.00000000      10.00000000       1.00000000       0.00000000       0.00000000       0.00000000       1.00000000       1.50000000       2.00000000       0.00000000      -0.00000000      -0.00000000      -0.00000000       1.87712216       0.00000000       0.00000000
X       12.40000000      10.00000000      10.00000000       0.00000000       0.00000000       0.00000000       1.00000000       1.00000000       1.50000000       2.00000000       3.14159265      -0.00000000      -0.00000000      -0.00000000      -1.87712216      -0.00000000      -0.00000000
2
Lattice="20.0 0.0 0.0 0.0 20.0 0.0 0.0 0.0 20.0" Properties=species:S:1:pos:R:3:quaternions:R:4:c_diameter[1]:R:1:c_diameter[2]:R:1:c_diameter[3]:R:1:angles:R:1:torques:R:3:forces:R:3 separation_distance=2.4 energy=-0.5962164900413728 pbc="F F F"
X       10.00000000      10.00000000      10.00000000       0.98480775       0.00000000       0.00000000       0.17364818       1.00000000       1.50000000       2.00000000       0.34906585      -0.00000000      -0.00000000       0.47094926       2.12063908      -0.11987249       0.00000000
X       12.40000000      10.00000000      10.00000000       1.00000000       0.00000000       0.00000000       0.00000000       1.00000000       1.50000000       2.00000000       0.00000000      -0.00000000      -0.00000000      -0.18275410      -2.12063908       0.11987249      -0.00000000
2
Lattice="20.0 0.0 0.0 0.0 20.0 0.0 0.0 0.0 20.0" Properties=species:S:1:pos:R:3:quaternions:R:4:c_diameter[1]:R:1:c_diameter[2]:R:1:c_diameter[3]:R:1:angles:R:1:torques:R:3:forces:R:3 separation_distance=2.4 energy=-0.6163715191413882 pbc="F F F"
X       10.00000000      10.00000000      10.00000000       0.98480775       0.00000000       0.00000000       0.17364818       1.00000000       1.50000000       2.00000000       0.34906585      -0.00000000      -0.00000000       0.30982582       2.17032948      -0.25704357       0.00000000
X       12.40000000      10.00000000      10.00000000       0.98480775       0.00000000       0.00000000       0.17364818       1.00000000       1.50000000       2.00000000       0.34906585      -0.00000000      -0.00000000       0.30982582      -2.17032948       0.25704357      -0.00000000
2
Lattice="20.0 0.0 0.0 0.0 20.0 0.0 0.0 0.0 20.0" Properties=species:S:1:pos:R:3:quaternions:R:4:c_diameter[1]:R:1:c_diameter[2]:R:1:c_diameter[3]:R:1:angles:R:1:torques:R:3:forces:R:3 separation_distance=2.4 energy=-0.8103990171186283 pbc="F F F"
X       10.00000000      10.00000000      10.00000000       0.98480775       0.00000000       0.00000000       0.17364818       1.00000000       1.50000000       2.00000000       0.34906585      -0.00000000      -0.00000000       0.14318570       2.16622902      -0.34893883       0.00000000
X       12.40000000      10.00000000      10.00000000       0.93969262       0.00000000       0.00000000       0.34202014       1.00000000       1.50000000       2.00000000       0.69813170      -0.00000000      -0.00000000       0.63516551      -2.16622902       0.34893883      -0.00000000
2
Lattice="20.0 0.0 0.0 0.0 20.0 0.0 0.0 0.0 20.0" Properties=species:S:1:pos:R:3:quaternions:R:4:c_diameter[1]:R:1:c_diameter[2]:R:1:c_diameter[3]:R:1:angles:R:1:torques:R:3:forces:R:3 separation_distance=2.4 energy=-0.36729019902269233 pbc="F F F"
X       10.00000000      10.00000000      10.00000000       0.98480775       0.00000000       0.00000000       0.17364818       1.00000000       1.50000000       2.00000000       0.34906585      -0.00000000      -0.00000000      -1.20985793     -12.11877109       3.38963404       0.00000000
X       12.40000000      10.00000000      10.00000000       0.86602540       0.00000000       0.00000000       0.50000000       1.00000000       1.50000000       2.00000000       1.04719755      -0.00000000      -0.00000000      -7.94059739      12.11877109      -3.38963404      -0.00000000
2
Lattice="20.0 0.0 0.0 0.0 20.0 0.0 0.0 0.0 20.0" Properties=species:S:1:pos:R:3:quaternions:R:4:c_diameter[1]:R:1:c_diameter[2]:R:1:c_diameter[3]:R:1:angles:R:1:torques:R:3:forces:R:3 separation_distance=2.4 energy=-0.8409534407841264 pbc="F F F"
X       10.00000000      10.00000000      10.00000000       0.98480775       0.00000000       0.00000000       0.17364818       1.00000000       1.50000000       2.00000000       0.34906585      -0.00000000      -0.00000000      -1.07793434      -1.55373901      -0.12109326       0.00000000
X       12.40000000      10.00000000      10.00000000       0.34202014       0.00000000       0.00000000       0.93969262       1.00000000       1.50000000       2.00000000       2.44346095      -0.00000000      -0.00000000       1.48613660       1.55373901       0.12109326      -0.00000000
2
Lattice="20.0 0.0 0.0 0.0 20.0 0.0 0.0 0.0 20.0" Properties=species:S:1:pos:R:3:quaternions:R:4:c_diameter[1]:R:1:c_diameter[2]:R:1:c_diameter[3]:R:1:angles:R:1:torques:R:3:forces:R:3 separation_distance=2.4 energy=-0.742623903843487 pbc="F F F"
X       10.00000000      10.00000000      10.00000000       0.98480775       0.00000000       0.00000000       0.17364818       1.00000000       1.50000000       2.00000000       0.34906585      -0.00000000      -0.00000000       0.62027450       2.35114204       0.00000000       0.00000000
X       12.40000000      10.00000000      10.00000000       0.17364818       0.00000000       0.00000000       0.98480775       1.00000000       1.50000000       2.00000000       2.79252680      -0.00000000      -0.00000000      -0.62027450      -2.35114204      -0.00000000      -0.00000000
2
Lattice="20.0 0.0 0.0 0.0 20.0 0.0 0.0 0.0 20.0" Properties=species:S:1:pos:R:3:quaternions:R:4:c_diameter[1]:R:1:c_diameter[2]:R:1:c_diameter[3]:R:1:angles:R:1:torques:R:3:forces:R:3 separation_distance=2.4 energy=-0.5962164900413718 pbc="F F F"
X       10.00000000      10.00000000      10.00000000       0.98480775       0.00000000       0.00000000       0.17364818       1.00000000       1.50000000       2.00000000       0.34906585      -0.00000000      -0.00000000       0.47094926       2.12063908      -0.11987249       0.00000000
X       12.40000000      10.00000000      10.00000000       0.00000000       0.00000000       0.00000000       1.00000000       1.00000000       1.50000000       2.00000000       3.14159265      -0.00000000      -0.00000000      -0.18275410      -2.12063908       0.11987249      -0.00000000
2
Lattice="20.0 0.0 0.0 0.0 20.0 0.0 0.0 0.0 20.0" Properties=species:S:1:pos:R:3:quaternions:R:4:c_diameter[1]:R:1:c_diameter[2]:R:1:c_diameter[3]:R:1:angles:R:1:torques:R:3:forces:R:3 separation_distance=2.4 energy=-0.8331280635530233 pbc="F F F"
X       10.00000000      10.00000000      10.00000000       0.93969262       0.00000000       0.00000000       0.34202014       1.00000000       1.50000000       2.00000000       0.69813170      -0.00000000      -0.00000000       0.61333960       2.05935882      -0.18518430       0.00000000
X       12.40000000      10.00000000      10.00000000       1.00000000       0.00000000       0.00000000       0.00000000       1.00000000       1.50000000       2.00000000       0.00000000      -0.00000000      -0.00000000      -0.23428010      -2.05935882       0.18518430      -0.00000000
2
Lattice="20.0 0.0 0.0 0.0 20.0 0.0 0.0 0.0 20.0" Properties=species:S:1:pos:R:3:quaternions:R:4:c_diameter[1]:R:1:c_diameter[2]:R:1:c_diameter[3]:R:1:angles:R:1:torques:R:3:forces:R:3 separation_distance=2.4 energy=-0.8103990171186283 pbc="F F F"
X       10.00000000      10.00000000      10.00000000       0.93969262       0.00000000       0.00000000       0.34202014       1.00000000       1.50000000       2.00000000       0.69813170      -0.00000000      -0.00000000       0.63516551       2.16622902      -0.34893883       0.00000000
X       12.40000000      10.00000000      10.00000000       0.98480775       0.00000000       0.00000000       0.17364818       1.00000000       1.50000000       2.00000000       0.34906585      -0.00000000      -0.00000000       0.14318570      -2.16622902       0.34893883      -0.00000000
2
Lattice="20.0 0.0 0.0 0.0 20.0 0.0 0.0 0.0 20.0" Properties=species:S:1:pos:R:3:quaternions:R:4:c_diameter[1]:R:1:c_diameter[2]:R:1:c_diameter[3]:R:1:angles:R:1:torques:R:3:forces:R:3 separation_distance=2.4 energy=-0.8673735934675085 pbc="F F F"
X       10.00000000      10.00000000      10.00000000       0.93969262       0.00000000       0.00000000       0.34202014       1.00000000       1.50000000       2.00000000       0.69813170      -0.00000000      -0.00000000      -0.47694937      -0.04984761       0.25399776       0.00000000
X       12.40000000      10.00000000      10.00000000       0.93969262       0.00000000       0.00000000       0.34202014       1.00000000       1.50000000       2.00000000       0.69813170      -0.00000000      -0.00000000      -0.47694937       0.04984761      -0.25399776      -0.00000000
2
Lattice="20.0 0.0 0.0 0.0 20.0 0.0 0.0 0.0 20.0" Properties=species:S:1:pos:R:3:quaternions:R:4:c_diameter[1]:R:1:c_diameter[2]:R:1:c_diameter[3]:R:1:angles:R:1:torques:R:3:forces:R:3 separation_distance=2.4 energy=-0.8409534407841263 pbc="F F F"
X       10.00000000      10.00000000      10.00000000       0.93969262       0.00000000       0.00000000       0.34202014       1.00000000       1.50000000       2.00000000       0.69813170      -0.00000000      -0.00000000      -1.48613660      -1.55373901       0.12109326       0.00000000
X       12.40000000      10.00000000      10.00000000       0.17364818       0.00000000       0.00000000       0.98480775       1.00000000       1.50000000       2.00000000       2.79252680      -0.00000000      -0.00000000       1.07793434       1.55373901      -0.12109326      -0.00000000
2
Lattice="20.0 0.0 0.0 0.0 20.0 0.0 0.0 0.0 20.0" Properties=species:S:1:pos:R:3:quaternions:R:4:c_diameter[1]:R:1:c_diameter[2]:R:1:c_diameter[3]:R:1:angles:R:1:torques:R:3:forces:R:3 separation_distance=2.4 energy=-0.8331280635530226 pbc="F F F"
X       10.00000000      10.00000000      10.00000000       0.93969262       0.00000000       0.00000000       0.34202014       1.00000000       1.50000000       2.00000000       0.69813170      -0.00000000      -0.00000000       0.61333960       2.05935882      -0.18518430       0.00000000
X       12.40000000      10.00000000      10.00000000       0.00000000       0.00000000       0.00000000       1.00000000       1.00000000       1.50000000       2.00000000       3.14159265      -0.00000000      -0.00000000      -0.23428010      -2.05935882       0.18518430      -0.00000000
2
Lattice="20.0 0.0 0.0 0.0 20.0 0.0 0.0 0.0 20.0" Properties=species:S:1:pos:R:3:quaternions:R:4:c_diameter[1]:R:1:c_diameter[2]:R:1:c_diameter[3]:R:1:angles:R:1:torques:R:3:forces:R:3 separation_distance=2.4 energy=-0.17989989547094615 pbc="F F F"
X       10.00000000      10.00000000      10.00000000       0.86602540       0.00000000       0.00000000       0.50000000       1.00000000       1.50000000       2.00000000       1.04719755      -0.00000000      -0.00000000      -8.93148458     -15.73031789       2.40104784       0.00000000
X       12.40000000      10.00000000      10.00000000       1.00000000       0.00000000       0.00000000       0.00000000       1.00000000       1.50000000       2.00000000       0.00000000      -0.00000000      -0.00000000       2.68886550      15.73031789      -2.40104784      -0.00000000
2
Lattice="20.0 0.0 0.0 0.0 20.0 0.0 0.0 0.0 20.0" Properties=species:S:1:pos:R:3:quaternions:R:4:c_diameter[1]:R:1:c_diameter[2]:R:1:c_diameter[3]:R:1:angles:R:1:torques:R:3:forces:R:3 separation_distance=2.4 energy=-0.36729019902269233 pbc="F F F"
X       10.00000000      10.00000000      10.00000000       0.86602540       0.00000000       0.00000000       0.50000000       1.00000000       1.50000000       2.00000000       1.04719755      -0.00000000      -0.00000000      -7.94059739     -12.11877109       3.38963404       0.00000000
X       12.40000000      10.00000000      10.00000000       0.98480775       0.00000000       0.00000000       0.17364818       1.00000000       1.50000000       2.00000000       0.34906585      -0.00000000      -0.00000000      -1.20985793      12.11877109      -3.38963404      -0.00000000
2
Lattice="20.0 0.0 0.0 0.0 20.0 0.0 0.0 0.0 20.0" Properties=species:S:1:pos:R:3:quaternions:R:4:c_diameter[1]:R:1:c_diameter[2]:R:1:c_diameter[3]:R:1:angles:R:1:torques:R:3:forces:R:3 separation_distance=2.4 energy=-0.17989989547093901 pbc="F F F"
X       10.00000000      10.00000000      10.00000000       0.86602540       0.00000000       0.00000000       0.50000000       1.00000000       1.50000000       2.00000000       1.04719755      -0.00000000      -0.00000000      -8.93148458     -15.73031789       2.40104784       0.00000000
X       12.40000000      10.00000000      10.00000000       0.00000000       0.00000000       0.00000000       1.00000000       1.00000000       1.50000000       2.00000000       3.14159265      -0.00000000      -0.00000000       2.68886550      15.73031789      -2.40104784      -0.00000000
2
Lattice="20.0 0.0 0.0 0.0 20.0 0.0 0.0 0.0 20.0" Properties=species:S:1:pos:R:3:quaternions:R:4:c_diameter[1]:R:1:c_diameter[2]:R:1:c_diameter[3]:R:1:angles:R:1:torques:R:3:forces:R:3 separation_distance=2.4 energy=-0.17989989547093915 pbc="F F F"
X       10.00000000      10.00000000      10.00000000       0.50000000       0.00000000       0.00000000       0.86602540       1.00000000       1.50000000       2.00000000       2.09439510      -0.00000000      -0.00000000       8.93148458     -15.73031789      -2.40104784       0.00000000
X       12.40000000      10.00000000      10.00000000       1.00000000       0.00000000       0.00000000       0.00000000       1.00000000       1.50000000       2.00000000       0.00000000      -0.00000000      -0.00000000      -2.68886550      15.73031789       2.40104784      -0.00000000
2
Lattice="20.0 0.0 0.0 0.0 20.0 0.0 0.0 0.0 20.0" Properties=species:S:1:pos:R:3:quaternions:R:4:c_diameter[1]:R:1:c_diameter[2]:R:1:c_diameter[3]:R:1:angles:R:1:torques:R:3:forces:R:3 separation_distance=2.4 energy=-0.36729019902268817 pbc="F F F"
X       10.00000000      10.00000000      10.00000000       0.50000000       0.00000000       0.00000000       0.86602540       1.00000000       1.50000000       2.00000000       2.09439510      -0.00000000      -0.00000000       7.94059739     -12.11877109      -3.38963404       0.00000000
X       12.40000000      10.00000000      10.00000000       0.17364818       0.00000000       0.00000000       0.98480775       1.00000000       1.50000000       2.00000000       2.79252680      -0.00000000      -0.00000000       1.20985793      12.11877109       3.38963404      -0.00000000
2
Lattice="20.0 0.0 0.0 0.0 20.0 0.0 0.0 0.0 20.0" Properties=species:S:1:pos:R:3:quaternions:R:4:c_diameter[1]:R:1:c_diameter[2]:R:1:c_diameter[3]:R:1:angles:R:1:torques:R:3:forces:R:3 separation_distance=2.4 energy=-0.17989989547093885 pbc="F F F"
X       10.00000000      10.00000000      10.00000000       0.50000000       0.00000000       0.00000000       0.86602540       1.00000000       1.50000000       2.00000000       2.09439510      -0.00000000      -0.00000000       8.93148458     -15.73031789      -2.40104784       0.00000000
X       12.40000000      10.00000000      10.00000000       0.00000000       0.00000000       0.00000000       1.00000000       1.00000000       1.50000000       2.00000000       3.14159265      -0.00000000      -0.00000000      -2.68886550      15.73031789       2.40104784      -0.00000000
2
Lattice="20.0 0.0 0.0 0.0 20.0 0.0 0.0 0.0 20.0" Properties=species:S:1:pos:R:3:quaternions:R:4:c_diameter[1]:R:1:c_diameter[2]:R:1:c_diameter[3]:R:1:angles:R:1:torques:R:3:forces:R:3 separation_distance=2.4 energy=-0.833128063553023 pbc="F F F"
X       10.00000000      10.00000000      10.00000000       0.34202014       0.00000000       0.00000000       0.93969262       1.00000000       1.50000000       2.00000000       2.44346095      -0.00000000      -0.00000000      -0.61333960       2.05935882       0.18518430       0.00000000
X       12.40000000      10.00000000      10.00000000       1.00000000       0.00000000       0.00000000       0.00000000       1.00000000       1.50000000       2.00000000       0.00000000      -0.00000000      -0.00000000       0.23428010      -2.05935882      -0.18518430      -0.00000000
2
Lattice="20.0 0.0 0.0 0.0 20.0 0.0 0.0 0.0 20.0" Properties=species:S:1:pos:R:3:quaternions:R:4:c_diameter[1]:R:1:c_diameter[2]:R:1:c_diameter[3]:R:1:angles:R:1:torques:R:3:forces:R:3 separation_distance=2.4 energy=-0.8409534407841264 pbc="F F F"
X       10.00000000      10.00000000      10.00000000       0.34202014       0.00000000       0.00000000       0.93969262       1.00000000       1.50000000       2.00000000       2.44346095      -0.00000000      -0.00000000       1.48613660      -1.55373901      -0.12109326       0.00000000
X       12.40000000      10.00000000      10.00000000       0.98480775       0.00000000       0.00000000       0.17364818       1.00000000       1.50000000       2.00000000       0.34906585      -0.00000000      -0.00000000      -1.07793434       1.55373901       0.12109326      -0.00000000
2
Lattice="20.0 0.0 0.0 0.0 20.0 0.0 0.0 0.0 20.0" Properties=species:S:1:pos:R:3:quaternions:R:4:c_diameter[1]:R:1:c_diameter[2]:R:1:c_diameter[3]:R:1:angles:R:1:torques:R:3:forces:R:3 separation_distance=2.4 energy=-0.867373593467508 pbc="F F F"
X       10.00000000      10.00000000      10.00000000       0.34202014       0.00000000       0.00000000       0.93969262       1.00000000       1.50000000       2.00000000       2.44346095      -0.00000000      -0.00000000       0.47694937      -0.04984761      -0.25399776       0.00000000
X       12.40000000      10.00000000      10.00000000       0.34202014       0.00000000       0.00000000       0.93969262       1.00000000       1.50000000       2.00000000       2.44346095      -0.00000000      -0.00000000       0.47694937       0.04984761       0.25399776      -0.00000000
2
Lattice="20.0 0.0 0.0 0.0 20.0 0.0 0.0 0.0 20.0" Properties=species:S:1:pos:R:3:quaternions:R:4:c_diameter[1]:R:1:c_diameter[2]:R:1:c_diameter[3]:R:1:angles:R:1:torques:R:3:forces:R:3 separation_distance=2.4 energy=-0.8103990171186267 pbc="F F F"
X       10.00000000      10.00000000      10.00000000       0.34202014       0.00000000       0.00000000       0.93969262       1.00000000       1.50000000       2.00000000       2.44346095      -0.00000000      -0.00000000      -0.63516551       2.16622902       0.34893883       0.00000000
X       12.40000000      10.00000000      10.00000000       0.17364818       0.00000000       0.00000000       0.98480775       1.00000000       1.50000000       2.00000000       2.79252680      -0.00000000      -0.00000000      -0.14318570      -2.16622902      -0.34893883      -0.00000000
2
Lattice="20.0 0.0 0.0 0.0 20.0 0.0 0.0 0.0 20.0" Properties=species:S:1:pos:R:3:quaternions:R:4:c_diameter[1]:R:1:c_diameter[2]:R:1:c_diameter[3]:R:1:angles:R:1:torques:R:3:forces:R:3 separation_distance=2.4 energy=-0.8331280635530232 pbc="F F F"
X       10.00000000      10.00000000      10.00000000       0.34202014       0.00000000       0.00000000       0.93969262       1.00000000       1.50000000       2.00000000       2.44346095      -0.00000000      -0.00000000      -0.61333960       2.05935882       0.18518430       0.00000000
X       12.40000000      10.00000000      10.00000000       0.00000000       0.00000000       0.00000000       1.00000000       1.00000000       1.50000000       2.00000000       3.14159265      -0.00000000      -0.00000000       0.23428010      -2.05935882      -0.18518430      -0.00000000
2
Lattice="20.0 0.0 0.0 0.0 20.0 0.0 0.0 0.0 20.0" Properties=species:S:1:pos:R:3:quaternions:R:4:c_diameter[1]:R:1:c_diameter[2]:R:1:c_diameter[3]:R:1:angles:R:1:torques:R:3:forces:R:3 separation_distance=2.4 energy=-0.5962164900413713 pbc="F F F"
X       10.00000000      10.00000000      10.00000000       0.17364818       0.00000000       0.00000000       0.98480775       1.00000000       1.50000000       2.00000000       2.79252680      -0.00000000      -0.00000000      -0.47094926       2.12063908       0.11987249       0.00000000
X       12.40000000      10.00000000      10.00000000       1.00000000       0.00000000       0.00000000       0.00000000       1.00000000       1.50000000       2.00000000       0.00000000      -0.00000000      -0.00000000       0.18275410      -2.12063908      -0.11987249      -0.00000000
2
Lattice="20.0 0.0 0.0 0.0 20.0 0.0 0.0 0.0 20.0" Properties=species:S:1:pos:R:3:quaternions:R:4:c_diameter[1]:R:1:c_diameter[2]:R:1:c_diameter[3]:R:1:angles:R:1:torques:R:3:forces:R:3 separation_distance=2.4 energy=-0.742623903843487 pbc="F F F"
X       10.00000000      10.00000000      10.00000000       0.17364818       0.00000000       0.00000000       0.98480775       1.00000000       1.50000000       2.00000000       2.79252680      -0.00000000      -0.00000000      -0.62027450       2.35114204       0.00000000       0.00000000
X       12.40000000      10.00000000      10.00000000       0.98480775       0.00000000       0.00000000       0.17364818       1.00000000       1.50000000       2.00000000       0.34906585      -0.00000000      -0.00000000       0.62027450      -2.35114204      -0.00000000      -0.00000000
2
Lattice="20.0 0.0 0.0 0.0 20.0 0.0 0.0 0.0 20.0" Properties=species:S:1:pos:R:3:quaternions:R:4:c_diameter[1]:R:1:c_diameter[2]:R:1:c_diameter[3]:R:1:angles:R:1:torques:R:3:forces:R:3 separation_distance=2.4 energy=-0.8409534407841263 pbc="F F F"
X       10.00000000      10.00000000      10.00000000       0.17364818       0.00000000       0.00000000       0.98480775       1.00000000       1.50000000       2.00000000       2.79252680      -0.00000000      -0.00000000       1.07793434      -1.55373901       0.12109326       0.00000000
X       12.40000000      10.00000000      10.00000000       0.93969262       0.00000000       0.00000000       0.34202014       1.00000000       1.50000000       2.00000000       0.69813170      -0.00000000      -0.00000000      -1.48613660       1.55373901      -0.12109326      -0.00000000
2
Lattice="20.0 0.0 0.0 0.0 20.0 0.0 0.0 0.0 20.0" Properties=species:S:1:pos:R:3:quaternions:R:4:c_diameter[1]:R:1:c_diameter[2]:R:1:c_diameter[3]:R:1:angles:R:1:torques:R:3:forces:R:3 separation_distance=2.4 energy=-0.36729019902268817 pbc="F F F"
X       10.00000000      10.00000000      10.00000000       0.17364818       0.00000000       0.00000000       0.98480775       1.00000000       1.50000000       2.00000000       2.79252680      -0.00000000      -0.00000000       1.20985793     -12.11877109      -3.38963404       0.00000000
X       12.40000000      10.00000000      10.00000000       0.50000000       0.00000000       0.00000000       0.86602540       1.00000000       1.50000000       2.00000000       2.09439510      -0.00000000      -0.00000000       7.94059739      12.11877109       3.38963404      -0.00000000
2
Lattice="20.0 0.0 0.0 0.0 20.0 0.0 0.0 0.0 20.0" Properties=species:S:1:pos:R:3:quaternions:R:4:c_diameter[1]:R:1:c_diameter[2]:R:1:c_diameter[3]:R:1:angles:R:1:torques:R:3:forces:R:3 separation_distance=2.4 energy=-0.8103990171186267 pbc="F F F"
X       10.00000000      10.00000000      10.00000000       0.17364818       0.00000000       0.00000000       0.98480775       1.00000000       1.50000000       2.00000000       2.79252680      -0.00000000      -0.00000000      -0.14318570       2.16622902       0.34893883       0.00000000
X       12.40000000      10.00000000      10.00000000       0.34202014       0.00000000       0.00000000       0.93969262       1.00000000       1.50000000       2.00000000       2.44346095      -0.00000000      -0.00000000      -0.63516551      -2.16622902      -0.34893883      -0.00000000
2
Lattice="20.0 0.0 0.0 0.0 20.0 0.0 0.0 0.0 20.0" Properties=species:S:1:pos:R:3:quaternions:R:4:c_diameter[1]:R:1:c_diameter[2]:R:1:c_diameter[3]:R:1:angles:R:1:torques:R:3:forces:R:3 separation_distance=2.4 energy=-0.6163715191413873 pbc="F F F"
X       10.00000000      10.00000000      10.00000000       0.17364818       0.00000000       0.00000000       0.98480775       1.00000000       1.50000000       2.00000000       2.79252680      -0.00000000      -0.00000000      -0.30982582       2.17032948       0.25704357       0.00000000
X       12.40000000      10.00000000      10.00000000       0.17364818       0.00000000       0.00000000       0.98480775       1.00000000       1.50000000       2.00000000       2.79252680      -0.00000000      -0.00000000      -0.30982582      -2.17032948      -0.25704357      -0.00000000
2
Lattice="20.0 0.0 0.0 0.0 20.0 0.0 0.0 0.0 20.0" Properties=species:S:1:pos:R:3:quaternions:R:4:c_diameter[1]:R:1:c_diameter[2]:R:1:c_diameter[3]:R:1:angles:R:1:torques:R:3:forces:R:3 separation_distance=2.4 energy=-0.5962164900413713 pbc="F F F"
X       10.00000000      10.00000000      10.00000000       0.17364818       0.00000000       0.00000000       0.98480775       1.00000000       1.50000000       2.00000000       2.79252680      -0.00000000      -0.00000000      -0.47094926       2.12063908       0.11987249       0.00000000
X       12.40000000      10.00000000      10.00000000       0.00000000       0.00000000       0.00000000       1.00000000       1.00000000       1.50000000       2.00000000       3.14159265      -0.00000000      -0.00000000       0.18275410      -2.12063908      -0.11987249      -0.00000000
2
Lattice="20.0 0.0 0.0 0.0 20.0 0.0 0.0 0.0 20.0" Properties=species:S:1:pos:R:3:quaternions:R:4:c_diameter[1]:R:1:c_diameter[2]:R:1:c_diameter[3]:R:1:angles:R:1:torques:R:3:forces:R:3 separation_distance=2.4 energy=-0.5172052831817229 pbc="F F F"
X       10.00000000      10.00000000      10.00000000       0.00000000       0.00000000       0.00000000       1.00000000       1.00000000       1.50000000       2.00000000       3.14159265      -0.00000000      -0.00000000      -0.00000000       1.87712216       0.00000000       0.00000000
X       12.40000000      10.00000000      10.00000000       1.00000000       0.00000000       0.00000000       0.00000000       1.00000000       1.50000000       2.00000000       0.00000000      -0.00000000      -0.00000000      -0.00000000      -1.87712216      -0.00000000      -0.00000000
2
Lattice="20.0 0.0 0.0 0.0 20.0 0.0 0.0 0.0 20.0" Properties=species:S:1:pos:R:3:quaternions:R:4:c_diameter[1]:R:1:c_diameter[2]:R:1:c_diameter[3]:R:1:angles:R:1:torques:R:3:forces:R:3 separation_distance=2.4 energy=-0.5962164900413718 pbc="F F F"
X       10.00000000      10.00000000      10.00000000       0.00000000       0.00000000       0.00000000       1.00000000       1.00000000       1.50000000       2.00000000       3.14159265      -0.00000000      -0.00000000      -0.18275410       2.12063908      -0.11987249       0.00000000
X       12.40000000      10.00000000      10.00000000       0.98480775       0.00000000       0.00000000       0.17364818       1.00000000       1.50000000       2.00000000       0.34906585      -0.00000000      -0.00000000       0.47094926      -2.12063908       0.11987249      -0.00000000
2
Lattice="20.0 0.0 0.0 0.0 20.0 0.0 0.0 0.0 20.0" Properties=species:S:1:pos:R:3:quaternions:R:4:c_diameter[1]:R:1:c_diameter[2]:R:1:c_diameter[3]:R:1:angles:R:1:torques:R:3:forces:R:3 separation_distance=2.4 energy=-0.8331280635530226 pbc="F F F"
X       10.00000000      10.00000000      10.00000000       0.00000000       0.00000000       0.00000000       1.00000000       1.00000000       1.50000000       2.00000000       3.14159265      -0.00000000      -0.00000000      -0.23428010       2.05935882      -0.18518430       0.00000000
X       12.40000000      10.00000000      10.00000000       0.93969262       0.00000000       0.00000000       0.34202014       1.00000000       1.50000000       2.00000000       0.69813170      -0.00000000      -0.00000000       0.61333960      -2.05935882       0.18518430      -0.00000000
2
Lattice="20.0 0.0 0.0 0.0 20.0 0.0 0.0 0.0 20.0" Properties=species:S:1:pos:R:3:quaternions:R:4:c_diameter[1]:R:1:c_diameter[2]:R:1:c_diameter[3]:R:1:angles:R:1:torques:R:3:forces:R:3 separation_distance=2.4 energy=-0.17989989547093901 pbc="F F F"
X       10.00000000      10.00000000      10.00000000       0.00000000       0.00000000       0.00000000       1.00000000       1.00000000       1.50000000       2.00000000       3.14159265      -0.00000000      -0.00000000       2.68886550     -15.73031789       2.40104784       0.00000000
X       12.40000000      10.00000000      10.00000000       0.86602540       0.00000000       0.00000000       0.50000000       1.00000000       1.50000000       2.00000000       1.04719755      -0.00000000      -0.00000000      -8.93148458      15.73031789      -2.40104784      -0.00000000
2
Lattice="20.0 0.0 0.0 0.0 20.0 0.0 0.0 0.0 20.0" Properties=species:S:1:pos:R:3:quaternions:R:4:c_diameter[1]:R:1:c_diameter[2]:R:1:c_diameter[3]:R:1:angles:R:1:torques:R:3:forces:R:3 separation_distance=2.4 energy=-0.17989989547093885 pbc="F F F"
X       10.00000000      10.00000000      10.00000000       0.00000000       0.00000000       0.00000000       1.00000000       1.00000000       1.50000000       2.00000000       3.14159265      -0.00000000      -0.00000000      -2.68886550     -15.73031789      -2.40104784       0.00000000
X       12.40000000      10.00000000      10.00000000       0.50000000       0.00000000       0.00000000       0.86602540       1.00000000       1.50000000       2.00000000       2.09439510      -0.00000000      -0.00000000       8.93148458      15.73031789       2.40104784      -0.00000000
2
Lattice="20.0 0.0 0.0 0.0 20.0 0.0 0.0 0.0 20.0" Properties=species:S:1:pos:R:3:quaternions:R:4:c_diameter[1]:R:1:c_diameter[2]:R:1:c_diameter[3]:R:1:angles:R:1:torques:R:3:forces:R:3 separation_distance=2.4 energy=-0.8331280635530232 pbc="F F F"
X       10.00000000      10.00000000      10.00000000       0.00000000       0.00000000       0.00000000       1.00000000       1.00000000       1.50000000       2.00000000       3.14159265      -0.00000000      -0.00000000       0.23428010       2.05935882       0.18518430       0.00000000
X       12.40000000      10.00000000      10.00000000       0.34202014       0.00000000       0.00000000       0.93969262       1.00000000       1.50000000       2.00000000       2.44346095      -0.00000000      -0.00000000      -0.61333960      -2.05935882      -0.18518430      -0.00000000
2
Lattice="20.0 0.0 0.0 0.0 20.0 0.0 0.0 0.0 20.0" Properties=species:S:1:pos:R:3:quaternions:R:4:c_diameter[1]:R:1:c_diameter[2]:R:1:c_diameter[3]:R:1:angles:R:1:torques:R:3:forces:R:3 separation_distance=2.4 energy=-0.5962164900413713 pbc="F F F"
X       10.00000000      10.00000000      10.00000000       0.00000000       0.00000000       0.00000000       1.00000000       1.00000000       1.50000000       2.00000000       3.14159265      -0.00000000      -0.00000000       0.18275410       2.12063908       0.11987249       0.00000000
X       12.40000000      10.00000000      10.00000000       0.17364818       0.00000000       0.00000000       0.98480775       1.00000000       1.50000000       2.00000000       2.79252680      -0.00000000      -0.00000000      -0.47094926      -2.12063908      -0.11987249      -0.00000000
2
Lattice="20.0 0.0 0.0 0.0 20.0 0.0 0.0 0.0 20.0" Properties=species:S:1:pos:R:3:quaternions:R:4:c_diameter[1]:R:1:c_diameter[2]:R:1:c_diameter[3]:R:1:angles:R:1:torques:R:3:forces:R:3 separation_distance=2.4 energy=-0.5172052831817229 pbc="F F F"
X       10.00000000      10.00000000      10.00000000       0.00000000       0.00000000       0.00000000       1.00000000       1.00000000       1.50000000       2.00000000       3.14159265      -0.00000000      -0.00000000      -0.00000000       1.87712216       0.00000000       0.00000000
X       12.40000000      10.00000000      10.00000000       0.00000000       0.00000000       0.00000000       1.00000000       1.00000000       1.50000000       2.00000000       3.14159265      -0.00000000      -0.00000000      -0.00000000      -1.87712216      -0.00000000      -0.00000000
