2
Lattice="20.0 0.0 0.0 0.0 20.0 0.0 0.0 0.0 20.0" Properties=species:S:1:pos:R:3:quaternions:R:4:c_diameter\[1\]:R:1:c_diameter\[2\]:R:1:c_diameter\[3\]:R:1:forces:R:3:torques:R:3 energy=-0.0527448986101791 pbc="F F F"
X       10.00000000      10.00000000      10.00000000      -0.30077740       0.37190436       0.43302321       0.76400982       1.00000000       2.00000000       1.00000000       0.06799963       0.10432349       0.06240190       0.00340210      -0.00000000       0.00969696
X       11.07080371      11.68448789      11.03483174       0.57204565       0.69403340       0.30038600       0.31756835       1.00000000       2.00000000       1.00000000      -0.06799963      -0.10432349      -0.06240190      -0.00395318       0.00000000      -0.01040712
2
Lattice="20.0 0.0 0.0 0.0 20.0 0.0 0.0 0.0 20.0" Properties=species:S:1:pos:R:3:quaternions:R:4:c_diameter\[1\]:R:1:c_diameter\[2\]:R:1:c_diameter\[3\]:R:1:forces:R:3:torques:R:3 energy=-0.015755285428987593 pbc="F F F"
X       10.00000000      10.00000000      10.00000000      -0.01715995       0.94808752       0.29332158      -0.12164717       1.00000000       2.00000000       1.00000000       0.01937058       0.01378148       0.01003504      -0.00978640       0.00000000      -0.00439156
X       11.73194273      11.99547074      11.30627539       0.48637139       0.37376335      -0.13285770       0.77851953       1.00000000       2.00000000       1.00000000      -0.01937058      -0.01378148      -0.01003504       0.00498734      -0.00000000       0.00851852
2
Lattice="20.0 0.0 0.0 0.0 20.0 0.0 0.0 0.0 20.0" Properties=species:S:1:pos:R:3:quaternions:R:4:c_diameter\[1\]:R:1:c_diameter\[2\]:R:1:c_diameter\[3\]:R:1:forces:R:3:torques:R:3 energy=-0.06600434963830594 pbc="F F F"
X       10.00000000      10.00000000      10.00000000       0.81546869       0.29682825       0.16261301       0.46953254       1.00000000       2.00000000       1.00000000       0.07552703       0.12178986       0.11012104      -0.07807059      -0.00000000       0.01591370
X       11.03730209      11.72112155      11.29645366       0.26479818      -0.50945631       0.78184211       0.24302078       1.00000000       2.00000000       1.00000000      -0.07552703      -0.12178986      -0.11012104       0.04540664       0.00000000      -0.03455693
2
Lattice="20.0 0.0 0.0 0.0 20.0 0.0 0.0 0.0 20.0" Properties=species:S:1:pos:R:3:quaternions:R:4:c_diameter\[1\]:R:1:c_diameter\[2\]:R:1:c_diameter\[3\]:R:1:forces:R:3:torques:R:3 energy=-0.7897047860576465 pbc="F F F"
X       10.00000000      10.00000000      10.00000000       0.00762986      -0.19512530      -0.12132060       0.97321591       1.00000000       2.00000000       1.00000000       1.98274903       2.13793950       3.15371384       0.98695403      -0.00000000       1.73739476
X       11.05145353      11.21432957      11.11547558       0.68369268       0.27424348      -0.21814620      -0.64013051       1.00000000       2.00000000       1.00000000      -1.98274903      -2.13793950      -3.15371384       1.81086123      -0.00000000       0.20367079
2
Lattice="20.0 0.0 0.0 0.0 20.0 0.0 0.0 0.0 20.0" Properties=species:S:1:pos:R:3:quaternions:R:4:c_diameter\[1\]:R:1:c_diameter\[2\]:R:1:c_diameter\[3\]:R:1:forces:R:3:torques:R:3 energy=-0.09449160880426938 pbc="F F F"
X       10.00000000      10.00000000      10.00000000       0.96453952       0.13144903       0.05232823       0.22281479       1.00000000       2.00000000       1.00000000       0.11792795       0.18199590       0.18994699      -0.15253164       0.00000000       0.04293707
X       11.38539454      11.54109256      11.19289258      -0.23971269       0.82614553       0.50991775       0.00229766       1.00000000       2.00000000       1.00000000      -0.11792795      -0.18199590      -0.18994699       0.09106721      -0.00000000       0.07448062
2
Lattice="20.0 0.0 0.0 0.0 20.0 0.0 0.0 0.0 20.0" Properties=species:S:1:pos:R:3:quaternions:R:4:c_diameter\[1\]:R:1:c_diameter\[2\]:R:1:c_diameter\[3\]:R:1:forces:R:3:torques:R:3 energy=-0.19010758742062972 pbc="F F F"
X       10.00000000      10.00000000      10.00000000       0.37614572       0.79823314      -0.38841991      -0.26545853       1.00000000       2.00000000       1.00000000       0.37754447       0.28313321       0.27011991       0.03597403      -0.00000000       0.19028405
X       11.80421401      11.54456997      11.51852683       0.81933974      -0.40300433      -0.40467098      -0.05011294       1.00000000       2.00000000       1.00000000      -0.37754447      -0.28313321      -0.27011991      -0.20818099      -0.00000000       0.22212410
2
Lattice="20.0 0.0 0.0 0.0 20.0 0.0 0.0 0.0 20.0" Properties=species:S:1:pos:R:3:quaternions:R:4:c_diameter\[1\]:R:1:c_diameter\[2\]:R:1:c_diameter\[3\]:R:1:forces:R:3:torques:R:3 energy=-0.035699280001055586 pbc="F F F"
X       10.00000000      10.00000000      10.00000000       0.10983121      -0.65933569       0.21549194       0.71188256       1.00000000       2.00000000       1.00000000       0.04170601       0.02362918       0.04931141      -0.01376387      -0.00000000       0.03402782
X       11.70369067      11.80395932      11.68514892      -0.20013895      -0.62478244       0.03938787       0.75368422       1.00000000       2.00000000       1.00000000      -0.04170601      -0.02362918      -0.04931141      -0.01703810      -0.00000000       0.02086131
2
Lattice="20.0 0.0 0.0 0.0 20.0 0.0 0.0 0.0 20.0" Properties=species:S:1:pos:R:3:quaternions:R:4:c_diameter\[1\]:R:1:c_diameter\[2\]:R:1:c_diameter\[3\]:R:1:forces:R:3:torques:R:3 energy=-0.07516994413509151 pbc="F F F"
X       10.00000000      10.00000000      10.00000000       0.44611280       0.45163558       0.27020782       0.72387596       1.00000000       2.00000000       1.00000000       0.10384638       0.11360852       0.15449790      -0.04535928      -0.00000000      -0.00033666
X       11.01214487      11.04963489      11.64180161       0.44237945       0.78111813       0.42304550       0.12323714       1.00000000       2.00000000       1.00000000      -0.10384638      -0.11360852      -0.15449790       0.01134473      -0.00000000      -0.04858098
2
Lattice="20.0 0.0 0.0 0.0 20.0 0.0 0.0 0.0 20.0" Properties=species:S:1:pos:R:3:quaternions:R:4:c_diameter\[1\]:R:1:c_diameter\[2\]:R:1:c_diameter\[3\]:R:1:forces:R:3:torques:R:3 energy=-0.017979328682074833 pbc="F F F"
X       10.00000000      10.00000000      10.00000000       0.07365161       0.68393083       0.03817337       0.72481504       1.00000000       2.00000000       1.00000000       0.01921995       0.01549527       0.01896742       0.00981946      -0.00000000      -0.01001088
X       11.99242018      11.61173461      11.58192837      -0.37978661      -0.51063252       0.73769823       0.22542824       1.00000000       2.00000000       1.00000000      -0.01921995      -0.01549527      -0.01896742       0.00082606      -0.00000000       0.01387447
2
Lattice="20.0 0.0 0.0 0.0 20.0 0.0 0.0 0.0 20.0" Properties=species:S:1:pos:R:3:quaternions:R:4:c_diameter\[1\]:R:1:c_diameter\[2\]:R:1:c_diameter\[3\]:R:1:forces:R:3:torques:R:3 energy=-0.015515598535226332 pbc="F F F"
X       10.00000000      10.00000000      10.00000000       0.46200094       0.16736298      -0.14980498       0.85796458       1.00000000       2.00000000       1.00000000       0.01632561       0.01764201       0.01088393       0.00350741      -0.00000000       0.00261327
X       11.64161770      11.77483873      11.56925394       0.29380707       0.13546757       0.76749985      -0.55341659       1.00000000       2.00000000       1.00000000      -0.01632561      -0.01764201      -0.01088393      -0.01048443      -0.00000000      -0.00133855
2
Lattice="20.0 0.0 0.0 0.0 20.0 0.0 0.0 0.0 20.0" Properties=species:S:1:pos:R:3:quaternions:R:4:c_diameter\[1\]:R:1:c_diameter\[2\]:R:1:c_diameter\[3\]:R:1:forces:R:3:torques:R:3 energy=-0.18910341549282106 pbc="F F F"
X       10.00000000      10.00000000      10.00000000      -0.53307591      -0.36834445       0.72749554       0.22561620       1.00000000       2.00000000       1.00000000       0.37107988       0.56956365       0.27687526      -0.02437411      -0.00000000       0.06255803
X       11.12681742      11.27400637      11.14560210      -0.01404381       0.37703841       0.64423598       0.66528551       1.00000000       2.00000000       1.00000000      -0.37107988      -0.56956365      -0.27687526      -0.35520930      -0.00000000       0.01419389
2
Lattice="20.0 0.0 0.0 0.0 20.0 0.0 0.0 0.0 20.0" Properties=species:S:1:pos:R:3:quaternions:R:4:c_diameter\[1\]:R:1:c_diameter\[2\]:R:1:c_diameter\[3\]:R:1:forces:R:3:torques:R:3 energy=-0.05537811381223317 pbc="F F F"
X       10.00000000      10.00000000      10.00000000       0.18913116       0.36216051       0.80482161       0.43050127       1.00000000       2.00000000       1.00000000       0.09185441       0.07763611       0.04591157      -0.04943882      -0.00000000       0.00227529
X       11.94951240      11.85982946      11.04786331       0.70273232       0.07816827       0.69763103      -0.11561987       1.00000000       2.00000000       1.00000000      -0.09185441      -0.07763611      -0.04591157       0.05323611       0.00000000       0.03741083
2
Lattice="20.0 0.0 0.0 0.0 20.0 0.0 0.0 0.0 20.0" Properties=species:S:1:pos:R:3:quaternions:R:4:c_diameter\[1\]:R:1:c_diameter\[2\]:R:1:c_diameter\[3\]:R:1:forces:R:3:torques:R:3 energy=-0.2419809629784618 pbc="F F F"
X       10.00000000      10.00000000      10.00000000      -0.00082468       0.32842123       0.71494994       0.61724015       1.00000000       2.00000000       1.00000000       0.41070449       0.70939000       0.54444068      -0.45086118      -0.00000000       0.23490466
X       11.04070418      11.14334381      11.49544923      -0.30164108       0.75192733      -0.52831564      -0.25396955       1.00000000       2.00000000       1.00000000      -0.41070449      -0.70939000      -0.54444068       0.04294000       0.00000000       0.03824347
2
Lattice="20.0 0.0 0.0 0.0 20.0 0.0 0.0 0.0 20.0" Properties=species:S:1:pos:R:3:quaternions:R:4:c_diameter\[1\]:R:1:c_diameter\[2\]:R:1:c_diameter\[3\]:R:1:forces:R:3:torques:R:3 energy=-0.12375780843376959 pbc="F F F"
X       10.00000000      10.00000000      10.00000000       0.66872699       0.39768151       0.48135963       0.40366637       1.00000000       2.00000000       1.00000000       0.15721592       0.18175761       0.20900606      -0.13957186      -0.00000000       0.15858939
X       11.90748357      11.67433114      11.30989713       0.83531848      -0.33396781      -0.33612678       0.27879622       1.00000000       2.00000000       1.00000000      -0.15721592      -0.18175761      -0.20900606      -0.03591447      -0.00000000      -0.01837526
2
Lattice="20.0 0.0 0.0 0.0 20.0 0.0 0.0 0.0 20.0" Properties=species:S:1:pos:R:3:quaternions:R:4:c_diameter\[1\]:R:1:c_diameter\[2\]:R:1:c_diameter\[3\]:R:1:forces:R:3:torques:R:3 energy=-0.041128934097793 pbc="F F F"
X       10.00000000      10.00000000      10.00000000       0.48243839       0.56796597      -0.37985078       0.54807048       1.00000000       2.00000000       1.00000000       0.05031852       0.05806691       0.05407034       0.04510512      -0.00000000       0.03305496
X       11.18275546      11.39516717      11.98322521       0.46362477      -0.35019884      -0.21293461       0.78553911       1.00000000       2.00000000       1.00000000      -0.05031852      -0.05806691      -0.05407034       0.00678405      -0.00000000      -0.01090933
2
Lattice="20.0 0.0 0.0 0.0 20.0 0.0 0.0 0.0 20.0" Properties=species:S:1:pos:R:3:quaternions:R:4:c_diameter\[1\]:R:1:c_diameter\[2\]:R:1:c_diameter\[3\]:R:1:forces:R:3:torques:R:3 energy=-0.27272624033119125 pbc="F F F"
X       10.00000000      10.00000000      10.00000000      -0.18718664      -0.15968272      -0.17857153       0.95266720       1.00000000       2.00000000       1.00000000       0.32790034       0.58598962       0.50885916       0.23714871      -0.00000000       0.22940633
X       11.05948178      11.90429718      11.69288027       0.09240576       0.52846071      -0.52041238       0.66435036       1.00000000       2.00000000       1.00000000      -0.32790034      -0.58598962      -0.50885916      -0.18756162       0.00000000       0.29678122
2
Lattice="20.0 0.0 0.0 0.0 20.0 0.0 0.0 0.0 20.0" Properties=species:S:1:pos:R:3:quaternions:R:4:c_diameter\[1\]:R:1:c_diameter\[2\]:R:1:c_diameter\[3\]:R:1:forces:R:3:torques:R:3 energy=-0.038371582759748786 pbc="F F F"
X       10.00000000      10.00000000      10.00000000       0.68631082       0.60965261       0.39658896      -0.00428368       1.00000000       2.00000000       1.00000000       0.05799271       0.04337857       0.03641559      -0.00941233       0.00000000      -0.02684223
X       11.66911130      11.05112727      11.88047331      -0.54649157      -0.48862401       0.54885928      -0.40168025       1.00000000       2.00000000       1.00000000      -0.05799271      -0.04337857      -0.03641559       0.02482756      -0.00000000       0.03305531
2
Lattice="20.0 0.0 0.0 0.0 20.0 0.0 0.0 0.0 20.0" Properties=species:S:1:pos:R:3:quaternions:R:4:c_diameter\[1\]:R:1:c_diameter\[2\]:R:1:c_diameter\[3\]:R:1:forces:R:3:torques:R:3 energy=-0.019878758372491843 pbc="F F F"
X       10.00000000      10.00000000      10.00000000       0.58056169      -0.07708685      -0.57145758       0.57484082       1.00000000       2.00000000       1.00000000       0.01289978       0.01944330       0.02623491       0.00379252      -0.00000000      -0.01014815
X       11.31596202      11.70577966      11.77864363       0.81413836       0.29227800      -0.32333905       0.38367194       1.00000000       2.00000000       1.00000000      -0.01289978      -0.01944330      -0.02623491      -0.00743604       0.00000000       0.00076952
2
Lattice="20.0 0.0 0.0 0.0 20.0 0.0 0.0 0.0 20.0" Properties=species:S:1:pos:R:3:quaternions:R:4:c_diameter\[1\]:R:1:c_diameter\[2\]:R:1:c_diameter\[3\]:R:1:forces:R:3:torques:R:3 energy=-0.016169285515267705 pbc="F F F"
X       10.00000000      10.00000000      10.00000000       0.43589410      -0.57081521       0.61865602      -0.31848244       1.00000000       2.00000000       1.00000000       0.01423889       0.01580276       0.01750781      -0.01350925       0.00000000      -0.00561320
X       11.94102895      11.52612154      11.58987622       0.92271194       0.30312633      -0.23075020       0.05891892       1.00000000       2.00000000       1.00000000      -0.01423889      -0.01580276      -0.01750781      -0.00240360       0.00000000      -0.00008586
2
Lattice="20.0 0.0 0.0 0.0 20.0 0.0 0.0 0.0 20.0" Properties=species:S:1:pos:R:3:quaternions:R:4:c_diameter\[1\]:R:1:c_diameter\[2\]:R:1:c_diameter\[3\]:R:1:forces:R:3:torques:R:3 energy=-0.030925484109860516 pbc="F F F"
X       10.00000000      10.00000000      10.00000000      -0.61676703       0.77014792      -0.14890214       0.06556499       1.00000000       2.00000000       1.00000000       0.04509827       0.03932233       0.03059795       0.00493524       0.00000000       0.01267720
X       11.57400978      11.44142349      11.27540397       0.90575278       0.20694813       0.29916551      -0.21744969       1.00000000       2.00000000       1.00000000      -0.04509827      -0.03932233      -0.03059795       0.00566798      -0.00000000       0.00281105
2
Lattice="20.0 0.0 0.0 0.0 20.0 0.0 0.0 0.0 20.0" Properties=species:S:1:pos:R:3:quaternions:R:4:c_diameter\[1\]:R:1:c_diameter\[2\]:R:1:c_diameter\[3\]:R:1:forces:R:3:torques:R:3 energy=-0.1325456964701669 pbc="F F F"
X       10.00000000      10.00000000      10.00000000       0.75847437       0.37986862      -0.35654081       0.39152921       1.00000000       2.00000000       1.00000000       0.13709490       0.34021477       0.22865203       0.04320093       0.00000000       0.01734768
X       11.07135820      11.59667187      11.48940822       0.70545921      -0.53857558      -0.45063298       0.09588309       1.00000000       2.00000000       1.00000000      -0.13709490      -0.34021477      -0.22865203       0.18852514       0.00000000      -0.00574621
2
Lattice="20.0 0.0 0.0 0.0 20.0 0.0 0.0 0.0 20.0" Properties=species:S:1:pos:R:3:quaternions:R:4:c_diameter\[1\]:R:1:c_diameter\[2\]:R:1:c_diameter\[3\]:R:1:forces:R:3:torques:R:3 energy=-0.1631680983498736 pbc="F F F"
X       10.00000000      10.00000000      10.00000000       0.01895004       0.48639918      -0.41907013       0.76644436       1.00000000       2.00000000       1.00000000       0.28941701       0.34847143       0.14399975       0.08391643       0.00000000       0.21594734
X       11.85523384      11.72552339      11.08404281      -0.16763308       0.71652040      -0.58968791       0.33281502       1.00000000       2.00000000       1.00000000      -0.28941701      -0.34847143      -0.14399975      -0.25967529      -0.00000000       0.09673042
2
Lattice="20.0 0.0 0.0 0.0 20.0 0.0 0.0 0.0 20.0" Properties=species:S:1:pos:R:3:quaternions:R:4:c_diameter\[1\]:R:1:c_diameter\[2\]:R:1:c_diameter\[3\]:R:1:forces:R:3:torques:R:3 energy=-0.249921367524518 pbc="F F F"
X       10.00000000      10.00000000      10.00000000       0.18342268       0.63954825      -0.63423357      -0.39380444       1.00000000       2.00000000       1.00000000       0.29850539       0.62503195       0.60063120      -0.11702262      -0.00000000       0.34557651
X       11.41011233      11.20822605      11.19817971      -0.65728711       0.06354318      -0.24062986       0.71136010       1.00000000       2.00000000       1.00000000      -0.29850539      -0.62503195      -0.60063120      -0.02934435       0.00000000      -0.43875681
2
Lattice="20.0 0.0 0.0 0.0 20.0 0.0 0.0 0.0 20.0" Properties=species:S:1:pos:R:3:quaternions:R:4:c_diameter\[1\]:R:1:c_diameter\[2\]:R:1:c_diameter\[3\]:R:1:forces:R:3:torques:R:3 energy=-0.03466857400492535 pbc="F F F"
X       10.00000000      10.00000000      10.00000000       0.35783294       0.12828660       0.54248424       0.74913883       1.00000000       2.00000000       1.00000000       0.03234800       0.06064111       0.01243067      -0.03919871      -0.00000000      -0.00749221
X       11.58365144      11.92019163      11.21349632      -0.28958859      -0.30841442       0.71705101      -0.55394661       1.00000000       2.00000000       1.00000000      -0.03234800      -0.06064111      -0.01243067       0.00912782       0.00000000       0.03467009
2
Lattice="20.0 0.0 0.0 0.0 20.0 0.0 0.0 0.0 20.0" Properties=species:S:1:pos:R:3:quaternions:R:4:c_diameter\[1\]:R:1:c_diameter\[2\]:R:1:c_diameter\[3\]:R:1:forces:R:3:torques:R:3 energy=-0.018475372191217594 pbc="F F F"
X       10.00000000      10.00000000      10.00000000       0.63831044      -0.18517301       0.41691548      -0.62004211       1.00000000       2.00000000       1.00000000       0.01735786       0.02594134       0.00922119      -0.01429097      -0.00000000      -0.01269336
X       11.94893745      11.95207743      11.01709087       0.75287294      -0.60867798       0.16459012      -0.18868904       1.00000000       2.00000000       1.00000000      -0.01735786      -0.02594134      -0.00922119       0.00330044       0.00000000       0.00039628
2
Lattice="20.0 0.0 0.0 0.0 20.0 0.0 0.0 0.0 20.0" Properties=species:S:1:pos:R:3:quaternions:R:4:c_diameter\[1\]:R:1:c_diameter\[2\]:R:1:c_diameter\[3\]:R:1:forces:R:3:torques:R:3 energy=-0.04442110486345038 pbc="F F F"
X       10.00000000      10.00000000      10.00000000      -0.23182280       0.10982551       0.19296060       0.94708118       1.00000000       2.00000000       1.00000000       0.02668435       0.04502920       0.08843821       0.04052090       0.00000000       0.01693084
X       11.13091006      11.43217694      11.72841007      -0.10869398       0.80913802      -0.57435412      -0.05998863       1.00000000       2.00000000       1.00000000      -0.02668435      -0.04502920      -0.08843821      -0.03461228       0.00000000       0.03278411
2
Lattice="20.0 0.0 0.0 0.0 20.0 0.0 0.0 0.0 20.0" Properties=species:S:1:pos:R:3:quaternions:R:4:c_diameter\[1\]:R:1:c_diameter\[2\]:R:1:c_diameter\[3\]:R:1:forces:R:3:torques:R:3 energy=-0.4193777615001776 pbc="F F F"
X       10.00000000      10.00000000      10.00000000       0.56797939      -0.36761479       0.23738557       0.69707020       1.00000000       2.00000000       1.00000000       0.67419680       1.05430314       1.35837505      -0.05283653      -0.00000000      -0.93393776
X       11.36306922      11.02130065      11.46962581      -0.08887896       0.85583309      -0.42301161       0.28409756       1.00000000       2.00000000       1.00000000      -0.67419680      -1.05430314      -1.35837505      -0.86698479       0.00000000      -0.35578334
2
Lattice="20.0 0.0 0.0 0.0 20.0 0.0 0.0 0.0 20.0" Properties=species:S:1:pos:R:3:quaternions:R:4:c_diameter\[1\]:R:1:c_diameter\[2\]:R:1:c_diameter\[3\]:R:1:forces:R:3:torques:R:3 energy=-0.07575535448102085 pbc="F F F"
X       10.00000000      10.00000000      10.00000000       0.50594558      -0.14230483       0.84540332       0.09519260       1.00000000       2.00000000       1.00000000       0.14237737       0.09876010       0.12230152       0.09409165      -0.00000000       0.00569314
X       11.77046226      11.17747048      11.33857118       0.04053911       0.77248218       0.59425987       0.22018871       1.00000000       2.00000000       1.00000000      -0.14237737      -0.09876010      -0.12230152       0.02606160       0.00000000       0.10280403
2
Lattice="20.0 0.0 0.0 0.0 20.0 0.0 0.0 0.0 20.0" Properties=species:S:1:pos:R:3:quaternions:R:4:c_diameter\[1\]:R:1:c_diameter\[2\]:R:1:c_diameter\[3\]:R:1:forces:R:3:torques:R:3 energy=-0.10316237482158373 pbc="F F F"
X       10.00000000      10.00000000      10.00000000       0.80886324      -0.05383009       0.08183312       0.57978092       1.00000000       2.00000000       1.00000000       0.08237731       0.27125020       0.13249878      -0.11840616      -0.00000000      -0.12673641
X       11.23128484      11.75407796      11.02980856       0.30297095      -0.00917705       0.45501166       0.83731044       1.00000000       2.00000000       1.00000000      -0.08237731      -0.27125020      -0.13249878      -0.04609144       0.00000000      -0.07655180
2
Lattice="20.0 0.0 0.0 0.0 20.0 0.0 0.0 0.0 20.0" Properties=species:S:1:pos:R:3:quaternions:R:4:c_diameter\[1\]:R:1:c_diameter\[2\]:R:1:c_diameter\[3\]:R:1:forces:R:3:torques:R:3 energy=-0.021960583270634323 pbc="F F F"
X       10.00000000      10.00000000      10.00000000      -0.24229098       0.70916330      -0.39166414       0.53383677       1.00000000       2.00000000       1.00000000       0.00922393       0.02180237       0.03072891      -0.02190115       0.00000000      -0.01063153
X       11.28101090      11.99626354      11.90117692      -0.60756688      -0.14949576       0.73267500      -0.26777016       1.00000000       2.00000000       1.00000000      -0.00922393      -0.02180237      -0.03072891      -0.00795408       0.00000000      -0.01326717
2
Lattice="20.0 0.0 0.0 0.0 20.0 0.0 0.0 0.0 20.0" Properties=species:S:1:pos:R:3:quaternions:R:4:c_diameter\[1\]:R:1:c_diameter\[2\]:R:1:c_diameter\[3\]:R:1:forces:R:3:torques:R:3 energy=-0.7752135457085981 pbc="F F F"
X       10.00000000      10.00000000      10.00000000      -0.40225739      -0.22201230      -0.38818337       0.79888247       1.00000000       2.00000000       1.00000000       0.79638483       2.37698519       2.34465277      -0.49807186      -0.00000000      -1.11200231
X       11.05692987      11.50112843      11.54328908       0.90054685      -0.07710599       0.18111316       0.38764424       1.00000000       2.00000000       1.00000000      -0.79638483      -2.37698519      -2.34465277      -1.57652895       0.00000000      -0.22731497
2
Lattice="20.0 0.0 0.0 0.0 20.0 0.0 0.0 0.0 20.0" Properties=species:S:1:pos:R:3:quaternions:R:4:c_diameter\[1\]:R:1:c_diameter\[2\]:R:1:c_diameter\[3\]:R:1:forces:R:3:torques:R:3 energy=-0.18534434333737382 pbc="F F F"
X       10.00000000      10.00000000      10.00000000       0.58440274      -0.08958178       0.45221508       0.66779492       1.00000000       2.00000000       1.00000000       0.29067286       0.43509505       0.22723982      -0.22031404      -0.00000000      -0.22717303
X       11.36625144      11.39693317      11.70252630       0.16576601      -0.05898284       0.76366446       0.62117570       1.00000000       2.00000000       1.00000000      -0.29067286      -0.43509505      -0.22723982      -0.10819849      -0.00000000      -0.31727722
2
Lattice="20.0 0.0 0.0 0.0 20.0 0.0 0.0 0.0 20.0" Properties=species:S:1:pos:R:3:quaternions:R:4:c_diameter\[1\]:R:1:c_diameter\[2\]:R:1:c_diameter\[3\]:R:1:forces:R:3:torques:R:3 energy=-0.02977160597248819 pbc="F F F"
X       10.00000000      10.00000000      10.00000000      -0.11486756       0.47199443       0.65792130      -0.57547047       1.00000000       2.00000000       1.00000000       0.04167699       0.04079519       0.02324689       0.01129887       0.00000000      -0.00004550
X       11.90245474      11.35655084      11.26233092       0.51635827       0.21583155       0.59858701      -0.57313565       1.00000000       2.00000000       1.00000000      -0.04167699      -0.04079519      -0.02324689      -0.02649404      -0.00000000      -0.01838639
2
Lattice="20.0 0.0 0.0 0.0 20.0 0.0 0.0 0.0 20.0" Properties=species:S:1:pos:R:3:quaternions:R:4:c_diameter\[1\]:R:1:c_diameter\[2\]:R:1:c_diameter\[3\]:R:1:forces:R:3:torques:R:3 energy=-0.038125245130809275 pbc="F F F"
X       10.00000000      10.00000000      10.00000000      -0.29031238      -0.63964505       0.16913474       0.69135112       1.00000000       2.00000000       1.00000000       0.04822114       0.04086804       0.05247467      -0.00075158      -0.00000000       0.03964314
X       11.88008005      11.57653368      11.50698967      -0.28707476       0.93066660       0.22167843      -0.04802539       1.00000000       2.00000000       1.00000000      -0.04822114      -0.04086804      -0.05247467       0.01152925      -0.00000000       0.00480533
2
Lattice="20.0 0.0 0.0 0.0 20.0 0.0 0.0 0.0 20.0" Properties=species:S:1:pos:R:3:quaternions:R:4:c_diameter\[1\]:R:1:c_diameter\[2\]:R:1:c_diameter\[3\]:R:1:forces:R:3:torques:R:3 energy=-0.01598322042326241 pbc="F F F"
X       10.00000000      10.00000000      10.00000000       0.11690640       0.27447381       0.84540942      -0.44303492       1.00000000       2.00000000       1.00000000       0.01570478       0.01155242       0.01744579       0.00714286      -0.00000000       0.00280673
X       11.82101711      11.78492032      11.52265505       0.83337554       0.24217757       0.49172512      -0.07100446       1.00000000       2.00000000       1.00000000      -0.01570478      -0.01155242      -0.01744579       0.00576310      -0.00000000       0.01096589
2
Lattice="20.0 0.0 0.0 0.0 20.0 0.0 0.0 0.0 20.0" Properties=species:S:1:pos:R:3:quaternions:R:4:c_diameter\[1\]:R:1:c_diameter\[2\]:R:1:c_diameter\[3\]:R:1:forces:R:3:torques:R:3 energy=-0.06217983375127508 pbc="F F F"
X       10.00000000      10.00000000      10.00000000       0.28609845       0.68550356      -0.25036765      -0.62092559       1.00000000       2.00000000       1.00000000       0.03132454       0.06148937       0.12026124       0.04088672       0.00000000       0.06312075
X       11.11729347      11.81418889      11.78249864      -0.09901488       0.96744488      -0.18426695      -0.14245053       1.00000000       2.00000000       1.00000000      -0.03132454      -0.06148937      -0.12026124      -0.08180984       0.00000000      -0.01489699
2
Lattice="20.0 0.0 0.0 0.0 20.0 0.0 0.0 0.0 20.0" Properties=species:S:1:pos:R:3:quaternions:R:4:c_diameter\[1\]:R:1:c_diameter\[2\]:R:1:c_diameter\[3\]:R:1:forces:R:3:torques:R:3 energy=-0.048888823522165434 pbc="F F F"
X       10.00000000      10.00000000      10.00000000      -0.58353322      -0.34506369      -0.22320802       0.70042716       1.00000000       2.00000000       1.00000000       0.07261590       0.08102493       0.02823984      -0.04007679      -0.00000000      -0.04447641
X       11.97786739      11.54634315      11.16917882      -0.25339417       0.77434495       0.35038669      -0.46196370       1.00000000       2.00000000       1.00000000      -0.07261590      -0.08102493      -0.02823984       0.03387772      -0.00000000      -0.00607784
2
Lattice="20.0 0.0 0.0 0.0 20.0 0.0 0.0 0.0 20.0" Properties=species:S:1:pos:R:3:quaternions:R:4:c_diameter\[1\]:R:1:c_diameter\[2\]:R:1:c_diameter\[3\]:R:1:forces:R:3:torques:R:3 energy=-0.049761162057169364 pbc="F F F"
X       10.00000000      10.00000000      10.00000000      -0.17432253      -0.02114794      -0.15283911       0.97252487       1.00000000       2.00000000       1.00000000       0.08617292       0.05915955       0.05489908       0.03072339      -0.00000000       0.05213947
X       11.77395341      11.79187552      11.09469575       0.54704407       0.74276474       0.31286279       0.22618620       1.00000000       2.00000000       1.00000000      -0.08617292      -0.05915955      -0.05489908       0.00145415      -0.00000000       0.00758771
2
Lattice="20.0 0.0 0.0 0.0 20.0 0.0 0.0 0.0 20.0" Properties=species:S:1:pos:R:3:quaternions:R:4:c_diameter\[1\]:R:1:c_diameter\[2\]:R:1:c_diameter\[3\]:R:1:forces:R:3:torques:R:3 energy=-0.3028287813275714 pbc="F F F"
X       10.00000000      10.00000000      10.00000000       0.74202864      -0.32172398      -0.53682758      -0.24021519       1.00000000       2.00000000       1.00000000       0.86124505       0.65800257       0.66437719      -0.49653532      -0.00000000       0.18993758
X       11.10165281      11.26884091      11.32445312      -0.04672650      -0.47467874       0.83688765       0.26854383       1.00000000       2.00000000       1.00000000      -0.86124505      -0.65800257      -0.66437719       0.01197680      -0.00000000      -0.00792508
2
Lattice="20.0 0.0 0.0 0.0 20.0 0.0 0.0 0.0 20.0" Properties=species:S:1:pos:R:3:quaternions:R:4:c_diameter\[1\]:R:1:c_diameter\[2\]:R:1:c_diameter\[3\]:R:1:forces:R:3:torques:R:3 energy=-0.12094764913617723 pbc="F F F"
X       10.00000000      10.00000000      10.00000000      -0.53103018       0.44137456      -0.04739679       0.72176796       1.00000000       2.00000000       1.00000000       0.18205651       0.10070832       0.28715745       0.08166112      -0.00000000      -0.11057622
X       11.61798171      11.03448065      11.75817416       0.73064305      -0.47970723      -0.46522712       0.14001943       1.00000000       2.00000000       1.00000000      -0.18205651      -0.10070832      -0.28715745      -0.04773461      -0.00000000      -0.04427227
2
Lattice="20.0 0.0 0.0 0.0 20.0 0.0 0.0 0.0 20.0" Properties=species:S:1:pos:R:3:quaternions:R:4:c_diameter\[1\]:R:1:c_diameter\[2\]:R:1:c_diameter\[3\]:R:1:forces:R:3:torques:R:3 energy=-0.02328088475958194 pbc="F F F"
X       10.00000000      10.00000000      10.00000000      -0.12961285      -0.46702201       0.75798975       0.43651173       1.00000000       2.00000000       1.00000000       0.03021075       0.02320427       0.01884519       0.00273440       0.00000000       0.00201459
X       11.94682064      11.54804580      11.78192910       0.04374391       0.20246456      -0.56068593       0.80170186       1.00000000       2.00000000       1.00000000      -0.03021075      -0.02320427      -0.01884519      -0.00636683      -0.00000000       0.02146033
2
Lattice="20.0 0.0 0.0 0.0 20.0 0.0 0.0 0.0 20.0" Properties=species:S:1:pos:R:3:quaternions:R:4:c_diameter\[1\]:R:1:c_diameter\[2\]:R:1:c_diameter\[3\]:R:1:forces:R:3:torques:R:3 energy=-0.03353967824508986 pbc="F F F"
X       10.00000000      10.00000000      10.00000000       0.30951731      -0.04948109      -0.14339965       0.93871572       1.00000000       2.00000000       1.00000000       0.04625156       0.03420058       0.04621597       0.00238733       0.00000000       0.02295570
X       11.45184662      11.63568206      11.32315065      -0.01818471       0.16170519       0.94941694      -0.26856698       1.00000000       2.00000000       1.00000000      -0.04625156      -0.03420058      -0.04621597       0.03060105       0.00000000      -0.00976544
2
Lattice="20.0 0.0 0.0 0.0 20.0 0.0 0.0 0.0 20.0" Properties=species:S:1:pos:R:3:quaternions:R:4:c_diameter\[1\]:R:1:c_diameter\[2\]:R:1:c_diameter\[3\]:R:1:forces:R:3:torques:R:3 energy=-0.5373525252339917 pbc="F F F"
X       10.00000000      10.00000000      10.00000000      -0.53530233       0.80947376       0.21942423       0.10028286       1.00000000       2.00000000       1.00000000       1.13452100       1.87341050       1.20762649       0.41526429       0.00000000       0.80481817
X       11.31034431      11.04928047      11.31741620      -0.62779127      -0.20023756      -0.20420052       0.72393728       1.00000000       2.00000000       1.00000000      -1.13452100      -1.87341050      -1.20762649       0.49433836      -0.00000000      -1.06032280
2
Lattice="20.0 0.0 0.0 0.0 20.0 0.0 0.0 0.0 20.0" Properties=species:S:1:pos:R:3:quaternions:R:4:c_diameter\[1\]:R:1:c_diameter\[2\]:R:1:c_diameter\[3\]:R:1:forces:R:3:torques:R:3 energy=-0.021287297359512583 pbc="F F F"
X       10.00000000      10.00000000      10.00000000       0.71223530       0.27728655       0.10663415       0.63597343       1.00000000       2.00000000       1.00000000       0.01479219       0.02985676       0.02099156      -0.01414535       0.00000000      -0.00999492
X       11.41542405      11.97147429      11.35652340       0.42189574       0.57707221       0.62647015      -0.31068764       1.00000000       2.00000000       1.00000000      -0.01479219      -0.02985676      -0.02099156       0.00346987      -0.00000000      -0.00392770
2
Lattice="20.0 0.0 0.0 0.0 20.0 0.0 0.0 0.0 20.0" Properties=species:S:1:pos:R:3:quaternions:R:4:c_diameter\[1\]:R:1:c_diameter\[2\]:R:1:c_diameter\[3\]:R:1:forces:R:3:torques:R:3 energy=-0.022944536490250883 pbc="F F F"
X       10.00000000      10.00000000      10.00000000       0.51053592      -0.47851310       0.53548601      -0.47289854       1.00000000       2.00000000       1.00000000       0.01315940       0.03309792       0.02271578      -0.01256828      -0.00000000      -0.01974357
X       11.51981085      11.76994310      11.62455153       0.17646104       0.27777430       0.45444093       0.82775986       1.00000000       2.00000000       1.00000000      -0.01315940      -0.03309792      -0.02271578      -0.01805501      -0.00000000      -0.00891309
2
Lattice="20.0 0.0 0.0 0.0 20.0 0.0 0.0 0.0 20.0" Properties=species:S:1:pos:R:3:quaternions:R:4:c_diameter\[1\]:R:1:c_diameter\[2\]:R:1:c_diameter\[3\]:R:1:forces:R:3:torques:R:3 energy=-0.061681777460918887 pbc="F F F"
X       10.00000000      10.00000000      10.00000000       0.90328191      -0.26616317      -0.26582201       0.20634345       1.00000000       2.00000000       1.00000000       0.06120413       0.02763803       0.12254156      -0.07328983      -0.00000000       0.01404152
X       11.60924997      11.21456528      11.97689070       0.79650049      -0.07392903      -0.31380400       0.51151591       1.00000000       2.00000000       1.00000000      -0.06120413      -0.02763803      -0.12254156      -0.04965269      -0.00000000      -0.06641887
2
Lattice="20.0 0.0 0.0 0.0 20.0 0.0 0.0 0.0 20.0" Properties=species:S:1:pos:R:3:quaternions:R:4:c_diameter\[1\]:R:1:c_diameter\[2\]:R:1:c_diameter\[3\]:R:1:forces:R:3:torques:R:3 energy=-0.0917679833269889 pbc="F F F"
X       10.00000000      10.00000000      10.00000000      -0.49116501      -0.37433981       0.76360461       0.18850632       1.00000000       2.00000000       1.00000000       0.15047539       0.19171985       0.17494094       0.01038881       0.00000000       0.00457874
X       11.09447167      11.30920226      11.12746034       0.72027133       0.25057671      -0.35860892       0.53834948       1.00000000       2.00000000       1.00000000      -0.15047539      -0.19171985      -0.17494094      -0.02373561      -0.00000000      -0.01193523
2
Lattice="20.0 0.0 0.0 0.0 20.0 0.0 0.0 0.0 20.0" Properties=species:S:1:pos:R:3:quaternions:R:4:c_diameter\[1\]:R:1:c_diameter\[2\]:R:1:c_diameter\[3\]:R:1:forces:R:3:torques:R:3 energy=-0.06505647210990692 pbc="F F F"
X       10.00000000      10.00000000      10.00000000      -0.45312170      -0.46021336       0.64811582      -0.40352233       1.00000000       2.00000000       1.00000000       0.09071011       0.11666338       0.05787890       0.06561471       0.00000000       0.05644185
X       11.70167908      11.23228888      11.47638337       0.81819686       0.21172588       0.17256537      -0.50591230       1.00000000       2.00000000       1.00000000      -0.09071011      -0.11666338      -0.05787890       0.05100061      -0.00000000      -0.07200676
2
Lattice="20.0 0.0 0.0 0.0 20.0 0.0 0.0 0.0 20.0" Properties=species:S:1:pos:R:3:quaternions:R:4:c_diameter\[1\]:R:1:c_diameter\[2\]:R:1:c_diameter\[3\]:R:1:forces:R:3:torques:R:3 energy=-0.06204553570602436 pbc="F F F"
X       10.00000000      10.00000000      10.00000000      -0.30287082      -0.38350419       0.82743798      -0.27665899       1.00000000       2.00000000       1.00000000       0.12834415       0.09700162       0.06322098       0.01620979      -0.00000000       0.06426082
X       11.64183197      11.08971592      11.14703957       0.06090237      -0.30851803       0.91483142       0.25335942       1.00000000       2.00000000       1.00000000      -0.12834415      -0.09700162      -0.06322098       0.00385554      -0.00000000      -0.03241713
2
Lattice="20.0 0.0 0.0 0.0 20.0 0.0 0.0 0.0 20.0" Properties=species:S:1:pos:R:3:quaternions:R:4:c_diameter\[1\]:R:1:c_diameter\[2\]:R:1:c_diameter\[3\]:R:1:forces:R:3:torques:R:3 energy=-0.040015068029640374 pbc="F F F"
X       10.00000000      10.00000000      10.00000000      -0.57634371      -0.10340022       0.70311032      -0.40345036       1.00000000       2.00000000       1.00000000       0.02639673       0.06280305       0.05475745       0.00350184      -0.00000000      -0.00558043
X       11.18959643      11.76606596      11.92354809      -0.09398715      -0.54949028       0.59326115      -0.58074785       1.00000000       2.00000000       1.00000000      -0.02639673      -0.06280305      -0.05475745      -0.03460733      -0.00000000       0.02191358
2
Lattice="20.0 0.0 0.0 0.0 20.0 0.0 0.0 0.0 20.0" Properties=species:S:1:pos:R:3:quaternions:R:4:c_diameter\[1\]:R:1:c_diameter\[2\]:R:1:c_diameter\[3\]:R:1:forces:R:3:torques:R:3 energy=-0.017371156151228136 pbc="F F F"
X       10.00000000      10.00000000      10.00000000       0.86889396      -0.35913322      -0.00350391      -0.34063814       1.00000000       2.00000000       1.00000000       0.01880971       0.01549553       0.01763180      -0.00578656      -0.00000000       0.00889512
X       11.65721071      11.71147724      11.62450287       0.68181066       0.08237936      -0.46147958       0.56159101       1.00000000       2.00000000       1.00000000      -0.01880971      -0.01549553      -0.01763180      -0.00697442       0.00000000      -0.00433634
2
Lattice="20.0 0.0 0.0 0.0 20.0 0.0 0.0 0.0 20.0" Properties=species:S:1:pos:R:3:quaternions:R:4:c_diameter\[1\]:R:1:c_diameter\[2\]:R:1:c_diameter\[3\]:R:1:forces:R:3:torques:R:3 energy=-0.13066189555943405 pbc="F F F"
X       10.00000000      10.00000000      10.00000000       0.76553300      -0.22804865       0.60101634       0.02706284       1.00000000       2.00000000       1.00000000       0.27497054       0.20663270       0.19124186       0.16355927       0.00000000       0.11489993
X       11.58973939      11.44815289      11.50557594       0.78473903      -0.31563034       0.14285297       0.51396029       1.00000000       2.00000000       1.00000000      -0.27497054      -0.20663270      -0.19124186       0.06783363      -0.00000000      -0.11798521
2
Lattice="20.0 0.0 0.0 0.0 20.0 0.0 0.0 0.0 20.0" Properties=species:S:1:pos:R:3:quaternions:R:4:c_diameter\[1\]:R:1:c_diameter\[2\]:R:1:c_diameter\[3\]:R:1:forces:R:3:torques:R:3 energy=-0.2029985701025934 pbc="F F F"
X       10.00000000      10.00000000      10.00000000       0.00470038      -0.23335482       0.72844880      -0.64411628       1.00000000       2.00000000       1.00000000       0.49440360       0.50064789       0.35864777      -0.29624154       0.00000000       0.29882576
X       11.11589929      11.11334929      11.46957426       0.45804710       0.69559683       0.10552055       0.54332616       1.00000000       2.00000000       1.00000000      -0.49440360      -0.50064789      -0.35864777       0.15996307       0.00000000      -0.11806816
2
Lattice="20.0 0.0 0.0 0.0 20.0 0.0 0.0 0.0 20.0" Properties=species:S:1:pos:R:3:quaternions:R:4:c_diameter\[1\]:R:1:c_diameter\[2\]:R:1:c_diameter\[3\]:R:1:forces:R:3:torques:R:3 energy=-0.026335764397014613 pbc="F F F"
X       10.00000000      10.00000000      10.00000000       0.72489665       0.10967247      -0.31508127      -0.60267784       1.00000000       2.00000000       1.00000000       0.01827909       0.02599313       0.03667904       0.02184552       0.00000000      -0.01259481
X       11.81356988      11.61072782      11.64154422       0.16457593       0.50034515       0.84932488      -0.03488188       1.00000000       2.00000000       1.00000000      -0.01827909      -0.02599313      -0.03667904       0.02954954       0.00000000       0.00236431
2
Lattice="20.0 0.0 0.0 0.0 20.0 0.0 0.0 0.0 20.0" Properties=species:S:1:pos:R:3:quaternions:R:4:c_diameter\[1\]:R:1:c_diameter\[2\]:R:1:c_diameter\[3\]:R:1:forces:R:3:torques:R:3 energy=-0.11669520186093738 pbc="F F F"
X       10.00000000      10.00000000      10.00000000       0.63720684      -0.50815266      -0.30437051       0.49305873       1.00000000       2.00000000       1.00000000       0.22571862       0.23075807       0.16068398       0.10651432      -0.00000000      -0.11727775
X       11.87391560      11.12618729      11.04523855       0.80520105       0.03719054       0.50723683      -0.30492447       1.00000000       2.00000000       1.00000000      -0.22571862      -0.23075807      -0.16068398      -0.04104817      -0.00000000      -0.02780097
2
Lattice="20.0 0.0 0.0 0.0 20.0 0.0 0.0 0.0 20.0" Properties=species:S:1:pos:R:3:quaternions:R:4:c_diameter\[1\]:R:1:c_diameter\[2\]:R:1:c_diameter\[3\]:R:1:forces:R:3:torques:R:3 energy=-0.048582966536343565 pbc="F F F"
X       10.00000000      10.00000000      10.00000000      -0.52443398       0.25164602       0.30960707       0.75218797       1.00000000       2.00000000       1.00000000       0.06282057       0.07888668       0.06591344       0.01090083      -0.00000000      -0.00710971
X       11.63904485      11.20187071      11.47834535      -0.34256509       0.80396316       0.47974861       0.07831769       1.00000000       2.00000000       1.00000000      -0.06282057      -0.07888668      -0.06591344       0.03935059      -0.00000000       0.05524360
2
Lattice="20.0 0.0 0.0 0.0 20.0 0.0 0.0 0.0 20.0" Properties=species:S:1:pos:R:3:quaternions:R:4:c_diameter\[1\]:R:1:c_diameter\[2\]:R:1:c_diameter\[3\]:R:1:forces:R:3:torques:R:3 energy=-0.013638551381513464 pbc="F F F"
X       10.00000000      10.00000000      10.00000000       0.35377698       0.05793405      -0.40597714       0.84063551       1.00000000       2.00000000       1.00000000       0.01686289       0.00867900       0.00857820       0.00778663       0.00000000       0.00752778
X       11.96444734      11.41332458      11.96571293      -0.43819603       0.18391446       0.52529911       0.70584740       1.00000000       2.00000000       1.00000000      -0.01686289      -0.00867900      -0.00857820      -0.01012450      -0.00000000       0.00313313
2
Lattice="20.0 0.0 0.0 0.0 20.0 0.0 0.0 0.0 20.0" Properties=species:S:1:pos:R:3:quaternions:R:4:c_diameter\[1\]:R:1:c_diameter\[2\]:R:1:c_diameter\[3\]:R:1:forces:R:3:torques:R:3 energy=-0.07132521536525833 pbc="F F F"
X       10.00000000      10.00000000      10.00000000      -0.37616544       0.74986784       0.53970178      -0.07014100       1.00000000       2.00000000       1.00000000       0.06736110       0.09209169       0.13133763       0.08494984      -0.00000000       0.06397306
X       11.79468524      11.08129534      11.72607622      -0.50078117      -0.23547420       0.27422586       0.78649240       1.00000000       2.00000000       1.00000000      -0.06736110      -0.09209169      -0.13133763       0.08007832      -0.00000000       0.06529408
2
Lattice="20.0 0.0 0.0 0.0 20.0 0.0 0.0 0.0 20.0" Properties=species:S:1:pos:R:3:quaternions:R:4:c_diameter\[1\]:R:1:c_diameter\[2\]:R:1:c_diameter\[3\]:R:1:forces:R:3:torques:R:3 energy=-0.029291872830921644 pbc="F F F"
X       10.00000000      10.00000000      10.00000000       0.59776749      -0.58047401       0.34864045      -0.42915473       1.00000000       2.00000000       1.00000000       0.03098877       0.02104877       0.04524073      -0.00669486       0.00000000      -0.01571556
X       11.52631848      11.58124250      11.88003042      -0.08235589       0.00090521      -0.17328011       0.98142279       1.00000000       2.00000000       1.00000000      -0.03098877      -0.02104877      -0.04524073       0.02759870      -0.00000000       0.02481594
2
Lattice="20.0 0.0 0.0 0.0 20.0 0.0 0.0 0.0 20.0" Properties=species:S:1:pos:R:3:quaternions:R:4:c_diameter\[1\]:R:1:c_diameter\[2\]:R:1:c_diameter\[3\]:R:1:forces:R:3:torques:R:3 energy=-0.10705706682746748 pbc="F F F"
X       10.00000000      10.00000000      10.00000000      -0.01216792       0.12171351       0.73988218       0.66152258       1.00000000       2.00000000       1.00000000       0.22839845       0.17271983       0.09101210      -0.07152426      -0.00000000      -0.12807486
X       11.61997665      11.06988153      11.48698105       0.38760824      -0.51187586       0.37378633       0.66934799       1.00000000       2.00000000       1.00000000      -0.22839845      -0.17271983      -0.09101210       0.04269894      -0.00000000      -0.12336708
2
Lattice="20.0 0.0 0.0 0.0 20.0 0.0 0.0 0.0 20.0" Properties=species:S:1:pos:R:3:quaternions:R:4:c_diameter\[1\]:R:1:c_diameter\[2\]:R:1:c_diameter\[3\]:R:1:forces:R:3:torques:R:3 energy=-0.07258375662271437 pbc="F F F"
X       10.00000000      10.00000000      10.00000000       0.68752738       0.44485773       0.40578612       0.40588832       1.00000000       2.00000000       1.00000000       0.11079940       0.11191956       0.13828119      -0.07288827       0.00000000       0.07730725
X       11.60315636      11.14221496      11.21366717       0.29741386      -0.60476690       0.15538940       0.72225766       1.00000000       2.00000000       1.00000000      -0.11079940      -0.11191956      -0.13828119       0.00368991       0.00000000      -0.01910090
2
Lattice="20.0 0.0 0.0 0.0 20.0 0.0 0.0 0.0 20.0" Properties=species:S:1:pos:R:3:quaternions:R:4:c_diameter\[1\]:R:1:c_diameter\[2\]:R:1:c_diameter\[3\]:R:1:forces:R:3:torques:R:3 energy=-0.03448875688690352 pbc="F F F"
X       10.00000000      10.00000000      10.00000000       0.70331867      -0.49549648       0.05392785      -0.50687067       1.00000000       2.00000000       1.00000000       0.02870165       0.04861904       0.04232957       0.00880197      -0.00000000      -0.01816828
X       11.78292216      11.66450381      11.49780560      -0.59606457       0.11613361      -0.23972725       0.75746343       1.00000000       2.00000000       1.00000000      -0.02870165      -0.04861904      -0.04232957      -0.00645098      -0.00000000      -0.03694533
2
Lattice="20.0 0.0 0.0 0.0 20.0 0.0 0.0 0.0 20.0" Properties=species:S:1:pos:R:3:quaternions:R:4:c_diameter\[1\]:R:1:c_diameter\[2\]:R:1:c_diameter\[3\]:R:1:forces:R:3:torques:R:3 energy=-0.2964217476831062 pbc="F F F"
X       10.00000000      10.00000000      10.00000000       0.73287607       0.47750353      -0.00850623      -0.48457269       1.00000000       2.00000000       1.00000000       0.63969740       1.00237621       0.51842813       0.50507836      -0.00000000      -0.40951416
X       11.27944415      11.21098527      11.00090660       0.56498252       0.42441651       0.64197298      -0.29755011       1.00000000       2.00000000       1.00000000      -0.63969740      -1.00237621      -0.51842813      -0.05830635       0.00000000       0.08261148
2
Lattice="20.0 0.0 0.0 0.0 20.0 0.0 0.0 0.0 20.0" Properties=species:S:1:pos:R:3:quaternions:R:4:c_diameter\[1\]:R:1:c_diameter\[2\]:R:1:c_diameter\[3\]:R:1:forces:R:3:torques:R:3 energy=-0.0201550456334036 pbc="F F F"
X       10.00000000      10.00000000      10.00000000       0.29691139      -0.16639602      -0.55433210       0.75952085       1.00000000       2.00000000       1.00000000       0.02500480       0.02038828       0.02047063      -0.00179750      -0.00000000       0.00645292
X       11.64632748      11.37568147      11.58699992      -0.42935360      -0.27317517       0.84848253      -0.14528666       1.00000000       2.00000000       1.00000000      -0.02500480      -0.02038828      -0.02047063       0.00064068       0.00000000       0.00327157
2
Lattice="20.0 0.0 0.0 0.0 20.0 0.0 0.0 0.0 20.0" Properties=species:S:1:pos:R:3:quaternions:R:4:c_diameter\[1\]:R:1:c_diameter\[2\]:R:1:c_diameter\[3\]:R:1:forces:R:3:torques:R:3 energy=-0.04761960172079973 pbc="F F F"
X       10.00000000      10.00000000      10.00000000      -0.17497615      -0.05437450       0.96345296       0.19541020       1.00000000       2.00000000       1.00000000       0.08511180       0.05427384       0.02677172       0.01122923       0.00000000      -0.06420214
X       11.64404514      11.81635168      11.25384420       0.60577854      -0.44687721       0.54197151       0.37363083       1.00000000       2.00000000       1.00000000      -0.08511180      -0.05427384      -0.02677172       0.04597678       0.00000000      -0.04431964
2
Lattice="20.0 0.0 0.0 0.0 20.0 0.0 0.0 0.0 20.0" Properties=species:S:1:pos:R:3:quaternions:R:4:c_diameter\[1\]:R:1:c_diameter\[2\]:R:1:c_diameter\[3\]:R:1:forces:R:3:torques:R:3 energy=-0.23890346289066197 pbc="F F F"
X       10.00000000      10.00000000      10.00000000       0.17684098       0.88744014      -0.25865580       0.33804505       1.00000000       2.00000000       1.00000000       0.48474730       0.61622279       0.40010379       0.07862462      -0.00000000      -0.20046910
X       11.11270511      11.62919187      11.39277488       0.08656382       0.01890235       0.61466721       0.78379438       1.00000000       2.00000000       1.00000000      -0.48474730      -0.61622279      -0.40010379      -0.28872517      -0.00000000      -0.19070034
2
Lattice="20.0 0.0 0.0 0.0 20.0 0.0 0.0 0.0 20.0" Properties=species:S:1:pos:R:3:quaternions:R:4:c_diameter\[1\]:R:1:c_diameter\[2\]:R:1:c_diameter\[3\]:R:1:forces:R:3:torques:R:3 energy=-0.04915951078130088 pbc="F F F"
X       10.00000000      10.00000000      10.00000000       0.31221851       0.91556657      -0.04338085       0.24975099       1.00000000       2.00000000       1.00000000       0.07777015       0.02034758       0.04610460       0.01310614      -0.00000000      -0.05393504
X       11.86051630      11.51655456      11.88256182       0.28094418       0.85328852      -0.13740504       0.41723966       1.00000000       2.00000000       1.00000000      -0.07777015      -0.02034758      -0.04610460       0.02582929      -0.00000000      -0.04152348
2
Lattice="20.0 0.0 0.0 0.0 20.0 0.0 0.0 0.0 20.0" Properties=species:S:1:pos:R:3:quaternions:R:4:c_diameter\[1\]:R:1:c_diameter\[2\]:R:1:c_diameter\[3\]:R:1:forces:R:3:torques:R:3 energy=-0.12198862328910165 pbc="F F F"
X       10.00000000      10.00000000      10.00000000       0.24718742       0.96508300      -0.01096429       0.08598239       1.00000000       2.00000000       1.00000000       0.28231019       0.19882120       0.18609958      -0.04161056       0.00000000      -0.18627225
X       11.33807640      11.54178599      11.14195677       0.08250110      -0.50864067       0.82568322       0.22962024       1.00000000       2.00000000       1.00000000      -0.28231019      -0.19882120      -0.18609958      -0.01930179       0.00000000      -0.01509525
2
Lattice="20.0 0.0 0.0 0.0 20.0 0.0 0.0 0.0 20.0" Properties=species:S:1:pos:R:3:quaternions:R:4:c_diameter\[1\]:R:1:c_diameter\[2\]:R:1:c_diameter\[3\]:R:1:forces:R:3:torques:R:3 energy=-0.028503265064632157 pbc="F F F"
X       10.00000000      10.00000000      10.00000000       0.82427287       0.15193502      -0.54526162       0.01340733       1.00000000       2.00000000       1.00000000       0.02784547       0.02665120       0.04298256      -0.01194810      -0.00000000      -0.00251588
X       11.17159387      11.23233902      11.97437966      -0.15498900       0.39279753       0.33432901       0.84256313       1.00000000       2.00000000       1.00000000      -0.02784547      -0.02665120      -0.04298256      -0.01141688       0.00000000      -0.00067709
2
Lattice="20.0 0.0 0.0 0.0 20.0 0.0 0.0 0.0 20.0" Properties=species:S:1:pos:R:3:quaternions:R:4:c_diameter\[1\]:R:1:c_diameter\[2\]:R:1:c_diameter\[3\]:R:1:forces:R:3:torques:R:3 energy=-0.10969222392869668 pbc="F F F"
X       10.00000000      10.00000000      10.00000000       0.93392104       0.03703346       0.12622809       0.33239507       1.00000000       2.00000000       1.00000000       0.16511104       0.18385004       0.21988979      -0.16632917      -0.00000000       0.00356519
X       11.37247329      11.71846035      11.11411964       0.14548579       0.07229779       0.20519128       0.96514426       1.00000000       2.00000000       1.00000000      -0.16511104      -0.18385004      -0.21988979       0.05477027       0.00000000       0.06722760
2
Lattice="20.0 0.0 0.0 0.0 20.0 0.0 0.0 0.0 20.0" Properties=species:S:1:pos:R:3:quaternions:R:4:c_diameter\[1\]:R:1:c_diameter\[2\]:R:1:c_diameter\[3\]:R:1:forces:R:3:torques:R:3 energy=-0.01630266466594813 pbc="F F F"
X       10.00000000      10.00000000      10.00000000       0.72489164      -0.00588309      -0.50591589       0.46748969       1.00000000       2.00000000       1.00000000       0.01366382       0.01618457       0.01804226      -0.00519720      -0.00000000      -0.01398580
X       11.73402522      11.84957917      11.47904181       0.28136917       0.17372338       0.22247013       0.91714700       1.00000000       2.00000000       1.00000000      -0.01366382      -0.01618457      -0.01804226      -0.00108674      -0.00000000       0.00077323
2
Lattice="20.0 0.0 0.0 0.0 20.0 0.0 0.0 0.0 20.0" Properties=species:S:1:pos:R:3:quaternions:R:4:c_diameter\[1\]:R:1:c_diameter\[2\]:R:1:c_diameter\[3\]:R:1:forces:R:3:torques:R:3 energy=-0.03861020590690181 pbc="F F F"
X       10.00000000      10.00000000      10.00000000       0.69028987      -0.05935080       0.55752333      -0.45732387       1.00000000       2.00000000       1.00000000       0.05132112       0.04795364       0.05218010      -0.02148495      -0.00000000      -0.02504795
X       11.47811070      11.31943644      11.63171419      -0.02412907       0.86173429       0.23718505      -0.44785605       1.00000000       2.00000000       1.00000000      -0.05132112      -0.04795364      -0.05218010      -0.02711020       0.00000000      -0.00475257
2
Lattice="20.0 0.0 0.0 0.0 20.0 0.0 0.0 0.0 20.0" Properties=species:S:1:pos:R:3:quaternions:R:4:c_diameter\[1\]:R:1:c_diameter\[2\]:R:1:c_diameter\[3\]:R:1:forces:R:3:torques:R:3 energy=-0.023435618859186925 pbc="F F F"
X       10.00000000      10.00000000      10.00000000       0.20514038      -0.64086894       0.70205096       0.23308555       1.00000000       2.00000000       1.00000000       0.01598462       0.03750857       0.02088401      -0.00062287      -0.00000000      -0.00156128
X       11.18609368      11.90848464      11.52404370      -0.59427427       0.67893384       0.12174700      -0.41359956       1.00000000       2.00000000       1.00000000      -0.01598462      -0.03750857      -0.02088401       0.02115007       0.00000000      -0.00744448
2
Lattice="20.0 0.0 0.0 0.0 20.0 0.0 0.0 0.0 20.0" Properties=species:S:1:pos:R:3:quaternions:R:4:c_diameter\[1\]:R:1:c_diameter\[2\]:R:1:c_diameter\[3\]:R:1:forces:R:3:torques:R:3 energy=-0.19604445010740817 pbc="F F F"
X       10.00000000      10.00000000      10.00000000       0.13484152       0.27759338       0.72713281      -0.61321901       1.00000000       2.00000000       1.00000000       0.61861107       0.26604249       0.30596890      -0.15554238      -0.00000000       0.06106655
X       11.51429321      11.22863941      11.11840938      -0.20517619      -0.22435997      -0.15413463       0.94011055       1.00000000       2.00000000       1.00000000      -0.61861107      -0.26604249      -0.30596890      -0.02657565      -0.00000000       0.39589100
2
Lattice="20.0 0.0 0.0 0.0 20.0 0.0 0.0 0.0 20.0" Properties=species:S:1:pos:R:3:quaternions:R:4:c_diameter\[1\]:R:1:c_diameter\[2\]:R:1:c_diameter\[3\]:R:1:forces:R:3:torques:R:3 energy=-0.34700344517427767 pbc="F F F"
X       10.00000000      10.00000000      10.00000000       0.96975198       0.02354878       0.06322839       0.23458202       1.00000000       2.00000000       1.00000000       0.59660169       0.82513464       0.99710471      -0.65884192      -0.00000000       0.35507198
X       11.39847995      11.48425111      11.01727970      -0.49067757       0.46564625      -0.44846046       0.58420228       1.00000000       2.00000000       1.00000000      -0.59660169      -0.82513464      -0.99710471      -0.45376913      -0.00000000      -0.54422456
2
Lattice="20.0 0.0 0.0 0.0 20.0 0.0 0.0 0.0 20.0" Properties=species:S:1:pos:R:3:quaternions:R:4:c_diameter\[1\]:R:1:c_diameter\[2\]:R:1:c_diameter\[3\]:R:1:forces:R:3:torques:R:3 energy=-0.2553369564629597 pbc="F F F"
X       10.00000000      10.00000000      10.00000000      -0.24290464       0.96210269      -0.10620764       0.06384107       1.00000000       2.00000000       1.00000000       0.45333937       0.43155604       0.74769283      -0.18918155       0.00000000      -0.23785911
X       11.35768465      11.30274463      11.15314330      -0.23738679       0.41794672       0.86806224      -0.12424166       1.00000000       2.00000000       1.00000000      -0.45333937      -0.43155604      -0.74769283       0.46464205       0.00000000      -0.08043986
2
Lattice="20.0 0.0 0.0 0.0 20.0 0.0 0.0 0.0 20.0" Properties=species:S:1:pos:R:3:quaternions:R:4:c_diameter\[1\]:R:1:c_diameter\[2\]:R:1:c_diameter\[3\]:R:1:forces:R:3:torques:R:3 energy=-0.09669017650878739 pbc="F F F"
X       10.00000000      10.00000000      10.00000000       0.42424103       0.80337969       0.33456850       0.25032885       1.00000000       2.00000000       1.00000000       0.15995351       0.16493350       0.15716511       0.03975133       0.00000000      -0.06162262
X       11.07287862      11.92424394      11.29316471       0.12879807       0.08468845       0.97411414       0.16534982       1.00000000       2.00000000       1.00000000      -0.15995351      -0.16493350      -0.15716511       0.11971179      -0.00000000      -0.04034902
2
Lattice="20.0 0.0 0.0 0.0 20.0 0.0 0.0 0.0 20.0" Properties=species:S:1:pos:R:3:quaternions:R:4:c_diameter\[1\]:R:1:c_diameter\[2\]:R:1:c_diameter\[3\]:R:1:forces:R:3:torques:R:3 energy=-0.05672854257401229 pbc="F F F"
X       10.00000000      10.00000000      10.00000000       0.03871516       0.80049874      -0.10723923       0.58838988       1.00000000       2.00000000       1.00000000       0.05903647       0.04354476       0.12659065       0.01130422      -0.00000000      -0.07809156
X       11.35149143      11.07059661      11.86435817       0.62031937      -0.17579496      -0.07891279       0.76031098       1.00000000       2.00000000       1.00000000      -0.05903647      -0.04354476      -0.12659065      -0.04531441       0.00000000      -0.05027110
2
Lattice="20.0 0.0 0.0 0.0 20.0 0.0 0.0 0.0 20.0" Properties=species:S:1:pos:R:3:quaternions:R:4:c_diameter\[1\]:R:1:c_diameter\[2\]:R:1:c_diameter\[3\]:R:1:forces:R:3:torques:R:3 energy=-0.19176114013865114 pbc="F F F"
X       10.00000000      10.00000000      10.00000000       0.08440106       0.61143406      -0.60711050       0.50044149       1.00000000       2.00000000       1.00000000       0.40655814       0.32356822       0.20465706       0.00740958       0.00000000       0.11676066
X       11.89577839      11.03563830      11.63127032      -0.08304151       0.40177220       0.65591787       0.63360473       1.00000000       2.00000000       1.00000000      -0.40655814      -0.32356822      -0.20465706      -0.34111293       0.00000000       0.00929398
2
Lattice="20.0 0.0 0.0 0.0 20.0 0.0 0.0 0.0 20.0" Properties=species:S:1:pos:R:3:quaternions:R:4:c_diameter\[1\]:R:1:c_diameter\[2\]:R:1:c_diameter\[3\]:R:1:forces:R:3:torques:R:3 energy=-0.04152052057966023 pbc="F F F"
X       10.00000000      10.00000000      10.00000000      -0.58631977      -0.14473032       0.73871383       0.29930611       1.00000000       2.00000000       1.00000000       0.06151122       0.01537968       0.06553364      -0.02953153      -0.00000000      -0.01671845
X       11.45327256      11.18162225      11.85180675       0.74392745      -0.07971738       0.65968817       0.07091268       1.00000000       2.00000000       1.00000000      -0.06151122      -0.01537968      -0.06553364       0.01485785      -0.00000000       0.04576722
2
Lattice="20.0 0.0 0.0 0.0 20.0 0.0 0.0 0.0 20.0" Properties=species:S:1:pos:R:3:quaternions:R:4:c_diameter\[1\]:R:1:c_diameter\[2\]:R:1:c_diameter\[3\]:R:1:forces:R:3:torques:R:3 energy=-0.10961295425501692 pbc="F F F"
X       10.00000000      10.00000000      10.00000000      -0.07746611       0.25507805       0.93392007       0.23817534       1.00000000       2.00000000       1.00000000       0.13738241       0.19071833       0.13640019       0.06850947       0.00000000      -0.02220150
X       11.25464569      11.93059745      11.84018262       0.58697853      -0.39869108       0.52754261       0.46711927       1.00000000       2.00000000       1.00000000      -0.13738241      -0.19071833      -0.13640019       0.10595036      -0.00000000      -0.15323033
2
Lattice="20.0 0.0 0.0 0.0 20.0 0.0 0.0 0.0 20.0" Properties=species:S:1:pos:R:3:quaternions:R:4:c_diameter\[1\]:R:1:c_diameter\[2\]:R:1:c_diameter\[3\]:R:1:forces:R:3:torques:R:3 energy=-0.06684161139380661 pbc="F F F"
X       10.00000000      10.00000000      10.00000000       0.86320692      -0.13178664       0.17022350      -0.45665091       1.00000000       2.00000000       1.00000000       0.09102693       0.11495566       0.08511499       0.00785882      -0.00000000      -0.06916009
X       11.89090427      11.06101126      11.06770224       0.19258789      -0.47289963       0.85658127      -0.07446058       1.00000000       2.00000000       1.00000000      -0.09102693      -0.11495566      -0.08511499      -0.05645724       0.00000000       0.04172365
2
Lattice="20.0 0.0 0.0 0.0 20.0 0.0 0.0 0.0 20.0" Properties=species:S:1:pos:R:3:quaternions:R:4:c_diameter\[1\]:R:1:c_diameter\[2\]:R:1:c_diameter\[3\]:R:1:forces:R:3:torques:R:3 energy=-0.04683543158978273 pbc="F F F"
X       10.00000000      10.00000000      10.00000000       0.54496055      -0.14142345       0.54379600       0.62233697       1.00000000       2.00000000       1.00000000       0.05838340       0.08115235       0.02270236      -0.03054452      -0.00000000      -0.05449599
X       11.48688695      11.90787983      11.41101838       0.25176206       0.60303402       0.53015855      -0.54027562       1.00000000       2.00000000       1.00000000      -0.05838340      -0.08115235      -0.02270236      -0.05375895      -0.00000000      -0.01090340
2
Lattice="20.0 0.0 0.0 0.0 20.0 0.0 0.0 0.0 20.0" Properties=species:S:1:pos:R:3:quaternions:R:4:c_diameter\[1\]:R:1:c_diameter\[2\]:R:1:c_diameter\[3\]:R:1:forces:R:3:torques:R:3 energy=-0.07928490097989808 pbc="F F F"
X       10.00000000      10.00000000      10.00000000      -0.23577112       0.25112218       0.86085114       0.37454631       1.00000000       2.00000000       1.00000000       0.17278926       0.07502447       0.07410598      -0.10824827       0.00000000      -0.04778277
X       11.77674829      11.57053755      11.27711031       0.92974036       0.00781934      -0.36794957       0.01161166       1.00000000       2.00000000       1.00000000      -0.17278926      -0.07502447      -0.07410598      -0.11369204      -0.00000000       0.01023967
2
Lattice="20.0 0.0 0.0 0.0 20.0 0.0 0.0 0.0 20.0" Properties=species:S:1:pos:R:3:quaternions:R:4:c_diameter\[1\]:R:1:c_diameter\[2\]:R:1:c_diameter\[3\]:R:1:forces:R:3:torques:R:3 energy=-0.0448396156146948 pbc="F F F"
X       10.00000000      10.00000000      10.00000000       0.87402662      -0.46813392       0.10044862      -0.08269329       1.00000000       2.00000000       1.00000000       0.06478648       0.07973025       0.03227886       0.03773581      -0.00000000       0.04372049
X       11.47604497      11.74926390      11.20302082       0.81667218       0.03221072       0.07142422      -0.57175835       1.00000000       2.00000000       1.00000000      -0.06478648      -0.07973025      -0.03227886       0.00335807      -0.00000000      -0.03867388
2
Lattice="20.0 0.0 0.0 0.0 20.0 0.0 0.0 0.0 20.0" Properties=species:S:1:pos:R:3:quaternions:R:4:c_diameter\[1\]:R:1:c_diameter\[2\]:R:1:c_diameter\[3\]:R:1:forces:R:3:torques:R:3 energy=-0.10475924717521351 pbc="F F F"
X       10.00000000      10.00000000      10.00000000      -0.38768798       0.77062901      -0.49227553      -0.11616265       1.00000000       2.00000000       1.00000000       0.18409610       0.15201853       0.18690888      -0.08794732      -0.00000000      -0.02769913
X       11.99547843      11.04855751      11.13087820       0.60479674       0.31348755       0.47305283       0.55871950       1.00000000       2.00000000       1.00000000      -0.18409610      -0.15201853      -0.18690888      -0.12945668      -0.00000000       0.02906178
2
Lattice="20.0 0.0 0.0 0.0 20.0 0.0 0.0 0.0 20.0" Properties=species:S:1:pos:R:3:quaternions:R:4:c_diameter\[1\]:R:1:c_diameter\[2\]:R:1:c_diameter\[3\]:R:1:forces:R:3:torques:R:3 energy=-0.0926740812874893 pbc="F F F"
X       10.00000000      10.00000000      10.00000000       0.25756446      -0.54499685       0.24893205       0.75807111       1.00000000       2.00000000       1.00000000       0.17033070       0.16559841       0.11536648       0.00959532      -0.00000000      -0.02477811
X       11.66964973      11.24526869      11.44326716      -0.23411012       0.55097563       0.70749785       0.37558635       1.00000000       2.00000000       1.00000000      -0.17033070      -0.16559841      -0.11536648      -0.06573821       0.00000000       0.07238124
2
Lattice="20.0 0.0 0.0 0.0 20.0 0.0 0.0 0.0 20.0" Properties=species:S:1:pos:R:3:quaternions:R:4:c_diameter\[1\]:R:1:c_diameter\[2\]:R:1:c_diameter\[3\]:R:1:forces:R:3:torques:R:3 energy=-0.02842532732832759 pbc="F F F"
X       10.00000000      10.00000000      10.00000000      -0.57932642       0.22083816       0.77511037      -0.12171818       1.00000000       2.00000000       1.00000000       0.00768134       0.03354671       0.04379647       0.01187558      -0.00000000      -0.03426931
X       11.00685032      11.92783612      11.96586436       0.22335199       0.52220108       0.54785340       0.61422844       1.00000000       2.00000000       1.00000000      -0.00768134      -0.03354671      -0.04379647      -0.01712307      -0.00000000       0.01814411
2
Lattice="20.0 0.0 0.0 0.0 20.0 0.0 0.0 0.0 20.0" Properties=species:S:1:pos:R:3:quaternions:R:4:c_diameter\[1\]:R:1:c_diameter\[2\]:R:1:c_diameter\[3\]:R:1:forces:R:3:torques:R:3 energy=-0.0924837079572785 pbc="F F F"
X       10.00000000      10.00000000      10.00000000       0.26801950       0.63661897       0.53223412       0.48949839       1.00000000       2.00000000       1.00000000       0.09173834       0.19638444       0.16322438      -0.03760189      -0.00000000       0.05643512
X       11.08418808      11.99972067      11.07997176       0.03219020       0.98059253      -0.16023238      -0.10829435       1.00000000       2.00000000       1.00000000      -0.09173834      -0.19638444      -0.16322438      -0.14270949      -0.00000000       0.00612983
2
Lattice="20.0 0.0 0.0 0.0 20.0 0.0 0.0 0.0 20.0" Properties=species:S:1:pos:R:3:quaternions:R:4:c_diameter\[1\]:R:1:c_diameter\[2\]:R:1:c_diameter\[3\]:R:1:forces:R:3:torques:R:3 energy=-0.012281441333691509 pbc="F F F"
X       10.00000000      10.00000000      10.00000000       0.44633207      -0.11417844       0.76290186      -0.45357659       1.00000000       2.00000000       1.00000000       0.00807760       0.01428186       0.00748916      -0.00748256      -0.00000000      -0.00607399
X       11.74413668      11.89130721      11.89109504      -0.16878449       0.48099953       0.42305217       0.74911822       1.00000000       2.00000000       1.00000000      -0.00807760      -0.01428186      -0.00748916      -0.00872348      -0.00000000       0.00088001
2
Lattice="20.0 0.0 0.0 0.0 20.0 0.0 0.0 0.0 20.0" Properties=species:S:1:pos:R:3:quaternions:R:4:c_diameter\[1\]:R:1:c_diameter\[2\]:R:1:c_diameter\[3\]:R:1:forces:R:3:torques:R:3 energy=-0.08172919879579825 pbc="F F F"
X       10.00000000      10.00000000      10.00000000       0.09063693       0.81984741      -0.37555109      -0.42260685       1.00000000       2.00000000       1.00000000       0.05763175       0.13557820       0.18648238      -0.06618749      -0.00000000       0.09917813
X       11.15899645      11.28730869      11.63114336      -0.23339214       0.82439294       0.50233732       0.11645435       1.00000000       2.00000000       1.00000000      -0.05763175      -0.13557820      -0.18648238       0.07007753       0.00000000       0.07971431
2
Lattice="20.0 0.0 0.0 0.0 20.0 0.0 0.0 0.0 20.0" Properties=species:S:1:pos:R:3:quaternions:R:4:c_diameter\[1\]:R:1:c_diameter\[2\]:R:1:c_diameter\[3\]:R:1:forces:R:3:torques:R:3 energy=-0.028325837941890048 pbc="F F F"
X       10.00000000      10.00000000      10.00000000      -0.16778593       0.34966885       0.88043539      -0.27278765       1.00000000       2.00000000       1.00000000       0.03024877       0.02070841       0.04088534       0.03078352      -0.00000000      -0.00812808
X       11.54170105      11.75067810      11.68888590       0.13639380       0.75381654      -0.00606344       0.64274458       1.00000000       2.00000000       1.00000000      -0.03024877      -0.02070841      -0.04088534       0.02766963       0.00000000      -0.01967483
2
Lattice="20.0 0.0 0.0 0.0 20.0 0.0 0.0 0.0 20.0" Properties=species:S:1:pos:R:3:quaternions:R:4:c_diameter\[1\]:R:1:c_diameter\[2\]:R:1:c_diameter\[3\]:R:1:forces:R:3:torques:R:3 energy=-0.16429472967309974 pbc="F F F"
X       10.00000000      10.00000000      10.00000000       0.41279334       0.69788110      -0.42472918       0.40270181       1.00000000       2.00000000       1.00000000       0.36386225       0.29246085       0.28310334       0.20192735      -0.00000000       0.14797757
X       11.15532630      11.23332290      11.73868619       0.29809270      -0.40938600       0.84329594       0.17998836       1.00000000       2.00000000       1.00000000      -0.36386225      -0.29246085      -0.28310334       0.18569847      -0.00000000      -0.06959351
2
Lattice="20.0 0.0 0.0 0.0 20.0 0.0 0.0 0.0 20.0" Properties=species:S:1:pos:R:3:quaternions:R:4:c_diameter\[1\]:R:1:c_diameter\[2\]:R:1:c_diameter\[3\]:R:1:forces:R:3:torques:R:3 energy=-0.12171585603792681 pbc="F F F"
X       10.00000000      10.00000000      10.00000000      -0.22651689       0.95543324      -0.17771238      -0.06523598       1.00000000       2.00000000       1.00000000       0.16126966       0.29257163       0.16751505      -0.18715935      -0.00000000      -0.02182457
X       11.31462116      11.93228356      11.04651454       0.80068931      -0.51918259      -0.12765129       0.27027988       1.00000000       2.00000000       1.00000000      -0.16126966      -0.29257163      -0.16751505       0.17912401      -0.00000000      -0.02966322
2
Lattice="20.0 0.0 0.0 0.0 20.0 0.0 0.0 0.0 20.0" Properties=species:S:1:pos:R:3:quaternions:R:4:c_diameter\[1\]:R:1:c_diameter\[2\]:R:1:c_diameter\[3\]:R:1:forces:R:3:torques:R:3 energy=-0.015802170508491174 pbc="F F F"
X       10.00000000      10.00000000      10.00000000       0.28840413      -0.05302345      -0.45273996       0.84204400       1.00000000       2.00000000       1.00000000       0.01579400       0.01797433       0.01070497       0.00190020      -0.00000000       0.01368720
X       11.44608638      11.91211540      11.78986145       0.30995158      -0.33776815       0.42214022       0.78207438       1.00000000       2.00000000       1.00000000      -0.01579400      -0.01797433      -0.01070497      -0.00463405      -0.00000000      -0.01046378
2
Lattice="20.0 0.0 0.0 0.0 20.0 0.0 0.0 0.0 20.0" Properties=species:S:1:pos:R:3:quaternions:R:4:c_diameter\[1\]:R:1:c_diameter\[2\]:R:1:c_diameter\[3\]:R:1:forces:R:3:torques:R:3 energy=-0.057191530900916394 pbc="F F F"
X       10.00000000      10.00000000      10.00000000       0.14943470       0.88692320      -0.42051077       0.11919398       1.00000000       2.00000000       1.00000000       0.06559335       0.07091105       0.09856518      -0.06134086       0.00000000       0.00281335
X       11.62213773      11.26270361      11.90640498      -0.37977461       0.84898380       0.24505584       0.27376155       1.00000000       2.00000000       1.00000000      -0.06559335      -0.07091105      -0.09856518       0.01934842      -0.00000000       0.05273202
2
Lattice="20.0 0.0 0.0 0.0 20.0 0.0 0.0 0.0 20.0" Properties=species:S:1:pos:R:3:quaternions:R:4:c_diameter\[1\]:R:1:c_diameter\[2\]:R:1:c_diameter\[3\]:R:1:forces:R:3:torques:R:3 energy=-0.011307580230648076 pbc="F F F"
X       10.00000000      10.00000000      10.00000000      -0.54492745      -0.30457932       0.77034082       0.12984813       1.00000000       2.00000000       1.00000000       0.01187239       0.00602529       0.00888453      -0.00245791       0.00000000      -0.00475734
X       11.97905387      11.97004072      11.85359004       0.09674203       0.96876535       0.14129001      -0.17936502       1.00000000       2.00000000       1.00000000      -0.01187239      -0.00602529      -0.00888453      -0.00607531      -0.00000000      -0.00587644
2
Lattice="20.0 0.0 0.0 0.0 20.0 0.0 0.0 0.0 20.0" Properties=species:S:1:pos:R:3:quaternions:R:4:c_diameter\[1\]:R:1:c_diameter\[2\]:R:1:c_diameter\[3\]:R:1:forces:R:3:torques:R:3 energy=-0.052091241065914166 pbc="F F F"
X       10.00000000      10.00000000      10.00000000      -0.08089333       0.86276519      -0.21293545      -0.45138785       1.00000000       2.00000000       1.00000000       0.07178254       0.06366686       0.07834646      -0.04522295       0.00000000       0.05129109
X       11.35374190      11.87877342      11.10906732       0.86706404       0.20111751      -0.41880649      -0.17986890       1.00000000       2.00000000       1.00000000      -0.07178254      -0.06366686      -0.07834646      -0.04241204       0.00000000       0.01959420
2
Lattice="20.0 0.0 0.0 0.0 20.0 0.0 0.0 0.0 20.0" Properties=species:S:1:pos:R:3:quaternions:R:4:c_diameter\[1\]:R:1:c_diameter\[2\]:R:1:c_diameter\[3\]:R:1:forces:R:3:torques:R:3 energy=-0.04853495048823214 pbc="F F F"
X       10.00000000      10.00000000      10.00000000      -0.09003163       0.08301825       0.99124040      -0.04944428       1.00000000       2.00000000       1.00000000       0.05949123       0.06179596       0.07603823       0.06241808      -0.00000000      -0.02821659
X       11.03329834      11.96540434      11.40977508       0.86826567      -0.27372824       0.17498504      -0.37492374       1.00000000       2.00000000       1.00000000      -0.05949123      -0.06179596      -0.07603823       0.01070974      -0.00000000       0.04018080
2
Lattice="20.0 0.0 0.0 0.0 20.0 0.0 0.0 0.0 20.0" Properties=species:S:1:pos:R:3:quaternions:R:4:c_diameter\[1\]:R:1:c_diameter\[2\]:R:1:c_diameter\[3\]:R:1:forces:R:3:torques:R:3 energy=-0.12534358493631656 pbc="F F F"
X       10.00000000      10.00000000      10.00000000      -0.62648099      -0.30200437      -0.32062682       0.64305006       1.00000000       2.00000000       1.00000000       0.22479091       0.23532044       0.22209642      -0.04991728      -0.00000000      -0.19783238
X       11.76925773      11.21733344      11.30431608       0.21936937       0.45167921       0.85548471      -0.12652624       1.00000000       2.00000000       1.00000000      -0.22479091      -0.23532044      -0.22209642       0.17623269      -0.00000000       0.07367108
2
Lattice="20.0 0.0 0.0 0.0 20.0 0.0 0.0 0.0 20.0" Properties=species:S:1:pos:R:3:quaternions:R:4:c_diameter\[1\]:R:1:c_diameter\[2\]:R:1:c_diameter\[3\]:R:1:forces:R:3:torques:R:3 energy=-0.023236525047340643 pbc="F F F"
X       10.00000000      10.00000000      10.00000000       0.82331705       0.16209501       0.51435476      -0.17695601       1.00000000       2.00000000       1.00000000       0.02976439       0.02850076       0.01592566       0.00914383       0.00000000       0.01120465
X       11.72938003      11.85752692      11.17316226      -0.01755675       0.21913834       0.61212455       0.75958784       1.00000000       2.00000000       1.00000000      -0.02976439      -0.02850076      -0.01592566      -0.01481476      -0.00000000      -0.00877340
2
Lattice="20.0 0.0 0.0 0.0 20.0 0.0 0.0 0.0 20.0" Properties=species:S:1:pos:R:3:quaternions:R:4:c_diameter\[1\]:R:1:c_diameter\[2\]:R:1:c_diameter\[3\]:R:1:forces:R:3:torques:R:3 energy=-0.02921605724378358 pbc="F F F"
X       10.00000000      10.00000000      10.00000000       0.68450854      -0.15789910      -0.24612371      -0.66778668       1.00000000       2.00000000       1.00000000       0.03455307       0.03372236       0.03415111      -0.01180738      -0.00000000      -0.00175049
X       11.16682582      11.38579239      11.91608919      -0.55736857       0.74625636      -0.36189507      -0.03838860       1.00000000       2.00000000       1.00000000      -0.03455307      -0.03372236      -0.03415111       0.02470015      -0.00000000       0.00013619
2
Lattice="20.0 0.0 0.0 0.0 20.0 0.0 0.0 0.0 20.0" Properties=species:S:1:pos:R:3:quaternions:R:4:c_diameter\[1\]:R:1:c_diameter\[2\]:R:1:c_diameter\[3\]:R:1:forces:R:3:torques:R:3 energy=-0.08362114696212519 pbc="F F F"
X       10.00000000      10.00000000      10.00000000      -0.03647875      -0.04609375       0.12693673       0.99016753       1.00000000       2.00000000       1.00000000       0.14808794       0.13956101       0.14210667       0.10091103       0.00000000       0.06938930
X       11.40105926      11.53363486      11.01586995       0.43806399      -0.46392759      -0.07492490       0.76632721       1.00000000       2.00000000       1.00000000      -0.14808794      -0.13956101      -0.14210667      -0.00081094       0.00000000      -0.04707763
2
Lattice="20.0 0.0 0.0 0.0 20.0 0.0 0.0 0.0 20.0" Properties=species:S:1:pos:R:3:quaternions:R:4:c_diameter\[1\]:R:1:c_diameter\[2\]:R:1:c_diameter\[3\]:R:1:forces:R:3:torques:R:3 energy=-0.7690613066382229 pbc="F F F"
X       10.00000000      10.00000000      10.00000000       0.18141972       0.46443635       0.86656609       0.02118882       1.00000000       2.00000000       1.00000000       1.30074633       1.97522189       3.27800343       1.63241532      -0.00000000       0.63866176
X       11.05235307      11.05136206      11.10287886      -0.51247228       0.63035546      -0.44677843       0.37471746       1.00000000       2.00000000       1.00000000      -1.30074633      -1.97522189      -3.27800343      -0.79412226      -0.00000000      -0.45339831
2
Lattice="20.0 0.0 0.0 0.0 20.0 0.0 0.0 0.0 20.0" Properties=species:S:1:pos:R:3:quaternions:R:4:c_diameter\[1\]:R:1:c_diameter\[2\]:R:1:c_diameter\[3\]:R:1:forces:R:3:torques:R:3 energy=-0.0326651305309449 pbc="F F F"
X       10.00000000      10.00000000      10.00000000       0.29159251      -0.50992702       0.78522856       0.19586818       1.00000000       2.00000000       1.00000000       0.03988727       0.03899737       0.04041599       0.01134475      -0.00000000      -0.00853774
X       11.46274112      11.44510125      11.52158853       0.70716073       0.04525254      -0.33741192      -0.61970082       1.00000000       2.00000000       1.00000000      -0.03988727      -0.03899737      -0.04041599       0.01228095      -0.00000000      -0.00293861
2
Lattice="20.0 0.0 0.0 0.0 20.0 0.0 0.0 0.0 20.0" Properties=species:S:1:pos:R:3:quaternions:R:4:c_diameter\[1\]:R:1:c_diameter\[2\]:R:1:c_diameter\[3\]:R:1:forces:R:3:torques:R:3 energy=-0.02786682170612463 pbc="F F F"
X       10.00000000      10.00000000      10.00000000       0.87211119       0.45305764       0.18454395      -0.01021672       1.00000000       2.00000000       1.00000000       0.03591554       0.03320759       0.02445388       0.01542674      -0.00000000      -0.00672204
X       11.42356130      11.50599465      11.83551824       0.56719066      -0.37280352      -0.48648225      -0.55013390       1.00000000       2.00000000       1.00000000      -0.03591554      -0.03320759      -0.02445388      -0.02958185      -0.00000000       0.00536131
2
Lattice="20.0 0.0 0.0 0.0 20.0 0.0 0.0 0.0 20.0" Properties=species:S:1:pos:R:3:quaternions:R:4:c_diameter\[1\]:R:1:c_diameter\[2\]:R:1:c_diameter\[3\]:R:1:forces:R:3:torques:R:3 energy=-0.06001178305624662 pbc="F F F"
X       10.00000000      10.00000000      10.00000000       0.87467242      -0.43436947       0.21378184      -0.02384611       1.00000000       2.00000000       1.00000000       0.09589818       0.06381417       0.05431004       0.01537754       0.00000000       0.08851675
X       11.61250698      11.52071182      11.99842585      -0.52272423      -0.53069269      -0.30571840       0.59301004       1.00000000       2.00000000       1.00000000      -0.09589818      -0.06381417      -0.05431004      -0.02149665       0.00000000      -0.06664385
2
Lattice="20.0 0.0 0.0 0.0 20.0 0.0 0.0 0.0 20.0" Properties=species:S:1:pos:R:3:quaternions:R:4:c_diameter\[1\]:R:1:c_diameter\[2\]:R:1:c_diameter\[3\]:R:1:forces:R:3:torques:R:3 energy=-0.028562522374392878 pbc="F F F"
X       10.00000000      10.00000000      10.00000000       0.09217501      -0.57833811      -0.47944628       0.65357483       1.00000000       2.00000000       1.00000000       0.03041616       0.04737631       0.01962620      -0.01549436       0.00000000      -0.00218851
X       11.39905422      11.89567398      11.19654598      -0.38288021       0.80539558       0.44167436      -0.09830800       1.00000000       2.00000000       1.00000000      -0.03041616      -0.04737631      -0.01962620       0.01618026       0.00000000       0.02014005
2
Lattice="20.0 0.0 0.0 0.0 20.0 0.0 0.0 0.0 20.0" Properties=species:S:1:pos:R:3:quaternions:R:4:c_diameter\[1\]:R:1:c_diameter\[2\]:R:1:c_diameter\[3\]:R:1:forces:R:3:torques:R:3 energy=-0.17495697207029515 pbc="F F F"
X       10.00000000      10.00000000      10.00000000       0.27785860       0.72591513      -0.53639201      -0.32882431       1.00000000       2.00000000       1.00000000       0.15601807       0.33626445       0.35293648       0.07483645      -0.00000000       0.25864750
X       11.56698816      11.61286442      11.19321336       0.60355507       0.38378689       0.62890521       0.30480672       1.00000000       2.00000000       1.00000000      -0.15601807      -0.33626445      -0.35293648      -0.03048181       0.00000000       0.25963043
2
Lattice="20.0 0.0 0.0 0.0 20.0 0.0 0.0 0.0 20.0" Properties=species:S:1:pos:R:3:quaternions:R:4:c_diameter\[1\]:R:1:c_diameter\[2\]:R:1:c_diameter\[3\]:R:1:forces:R:3:torques:R:3 energy=-0.06913160568965518 pbc="F F F"
X       10.00000000      10.00000000      10.00000000       0.16174705       0.62372194       0.33436295       0.68775741       1.00000000       2.00000000       1.00000000       0.11410995       0.08885141       0.10945149      -0.00999331       0.00000000       0.01060615
X       11.55336534      11.56406913      11.45826751       0.12267699       0.91872474      -0.21765101       0.30581572       1.00000000       2.00000000       1.00000000      -0.11410995      -0.08885141      -0.10945149      -0.01017846      -0.00000000      -0.06995619
2
Lattice="20.0 0.0 0.0 0.0 20.0 0.0 0.0 0.0 20.0" Properties=species:S:1:pos:R:3:quaternions:R:4:c_diameter\[1\]:R:1:c_diameter\[2\]:R:1:c_diameter\[3\]:R:1:forces:R:3:torques:R:3 energy=-0.0239135621290727 pbc="F F F"
X       10.00000000      10.00000000      10.00000000       0.74281798       0.29283203       0.02398339       0.60157763       1.00000000       2.00000000       1.00000000       0.01935239       0.02405265       0.03630203      -0.00729756      -0.00000000      -0.00359419
X       11.17968896      11.18754566      11.99710954      -0.34609767       0.91027102      -0.11900156      -0.19355028       1.00000000       2.00000000       1.00000000      -0.01935239      -0.02405265      -0.03630203       0.00735082      -0.00000000      -0.00346017
2
Lattice="20.0 0.0 0.0 0.0 20.0 0.0 0.0 0.0 20.0" Properties=species:S:1:pos:R:3:quaternions:R:4:c_diameter\[1\]:R:1:c_diameter\[2\]:R:1:c_diameter\[3\]:R:1:forces:R:3:torques:R:3 energy=-0.16940201261317367 pbc="F F F"
X       10.00000000      10.00000000      10.00000000       0.09528572       0.92401866      -0.35304161       0.11167710       1.00000000       2.00000000       1.00000000       0.28265607       0.29041885       0.32602186      -0.14745900       0.00000000       0.04632181
X       11.40764978      11.89860882      11.10106375       0.99321591       0.09569162      -0.06514601       0.01101194       1.00000000       2.00000000       1.00000000      -0.28265607      -0.29041885      -0.32602186      -0.22564932      -0.00000000       0.16926555
2
Lattice="20.0 0.0 0.0 0.0 20.0 0.0 0.0 0.0 20.0" Properties=species:S:1:pos:R:3:quaternions:R:4:c_diameter\[1\]:R:1:c_diameter\[2\]:R:1:c_diameter\[3\]:R:1:forces:R:3:torques:R:3 energy=-0.1649080804893249 pbc="F F F"
X       10.00000000      10.00000000      10.00000000      -0.60738637       0.69124316       0.03886255       0.38955666       1.00000000       2.00000000       1.00000000       0.40151928       0.33415159       0.26358992       0.06827213      -0.00000000       0.08794493
X       11.02721054      11.29212840      11.37621330       0.80633680      -0.41387100      -0.27037935      -0.32469487       1.00000000       2.00000000       1.00000000      -0.40151928      -0.33415159      -0.26358992      -0.19252474      -0.00000000       0.20663947
2
Lattice="20.0 0.0 0.0 0.0 20.0 0.0 0.0 0.0 20.0" Properties=species:S:1:pos:R:3:quaternions:R:4:c_diameter\[1\]:R:1:c_diameter\[2\]:R:1:c_diameter\[3\]:R:1:forces:R:3:torques:R:3 energy=-0.0494948932715992 pbc="F F F"
X       10.00000000      10.00000000      10.00000000       0.05256344       0.81701096      -0.12131284      -0.56126053       1.00000000       2.00000000       1.00000000       0.07402427       0.05002953       0.08083099      -0.05408354      -0.00000000       0.03704516
X       11.21005430      11.44327472      11.85735517       0.12445917      -0.30058093       0.70605188       0.62900855       1.00000000       2.00000000       1.00000000      -0.07402427      -0.05002953      -0.08083099       0.00784501      -0.00000000      -0.06291105
2
Lattice="20.0 0.0 0.0 0.0 20.0 0.0 0.0 0.0 20.0" Properties=species:S:1:pos:R:3:quaternions:R:4:c_diameter\[1\]:R:1:c_diameter\[2\]:R:1:c_diameter\[3\]:R:1:forces:R:3:torques:R:3 energy=-0.11411689661166752 pbc="F F F"
X       10.00000000      10.00000000      10.00000000       0.26278133       0.48329896       0.29721147       0.78040594       1.00000000       2.00000000       1.00000000       0.19226762       0.21033651       0.24601182       0.00662953      -0.00000000       0.03126986
X       11.18508781      11.54343888      11.04286966      -0.07941018       0.90161098      -0.20221206      -0.37403469       1.00000000       2.00000000       1.00000000      -0.19226762      -0.21033651      -0.24601182      -0.16244510       0.00000000       0.10283964
2
Lattice="20.0 0.0 0.0 0.0 20.0 0.0 0.0 0.0 20.0" Properties=species:S:1:pos:R:3:quaternions:R:4:c_diameter\[1\]:R:1:c_diameter\[2\]:R:1:c_diameter\[3\]:R:1:forces:R:3:torques:R:3 energy=-0.018975829663989346 pbc="F F F"
X       10.00000000      10.00000000      10.00000000       0.73527378      -0.19248453      -0.07692319      -0.64529450       1.00000000       2.00000000       1.00000000       0.01754428       0.02198970       0.01831373      -0.00076130       0.00000000      -0.00563467
X       11.39450163      11.71310103      11.77384603       0.63693055      -0.46719693      -0.27117391      -0.55001020       1.00000000       2.00000000       1.00000000      -0.01754428      -0.02198970      -0.01831373      -0.00240303       0.00000000       0.01208377
2
Lattice="20.0 0.0 0.0 0.0 20.0 0.0 0.0 0.0 20.0" Properties=species:S:1:pos:R:3:quaternions:R:4:c_diameter\[1\]:R:1:c_diameter\[2\]:R:1:c_diameter\[3\]:R:1:forces:R:3:torques:R:3 energy=-0.11845114872232844 pbc="F F F"
X       10.00000000      10.00000000      10.00000000       0.75712067      -0.31881272       0.43015364      -0.37429212       1.00000000       2.00000000       1.00000000       0.21167935       0.24418320       0.20426289      -0.00559669      -0.00000000      -0.05643833
X       11.37804091      11.02975259      11.61236140       0.48671829      -0.20901539       0.49404567       0.68944670       1.00000000       2.00000000       1.00000000      -0.21167935      -0.24418320      -0.20426289       0.00204658      -0.00000000      -0.21179238
2
Lattice="20.0 0.0 0.0 0.0 20.0 0.0 0.0 0.0 20.0" Properties=species:S:1:pos:R:3:quaternions:R:4:c_diameter\[1\]:R:1:c_diameter\[2\]:R:1:c_diameter\[3\]:R:1:forces:R:3:torques:R:3 energy=-0.13019072212175736 pbc="F F F"
X       10.00000000      10.00000000      10.00000000       0.31955735       0.81634668       0.00373282      -0.48108967       1.00000000       2.00000000       1.00000000       0.26496474       0.20553734       0.03708697      -0.11160281      -0.00000000      -0.07455659
X       11.66123957      11.97248171      11.04727199       0.45638649       0.76993113       0.15589097      -0.41787013       1.00000000       2.00000000       1.00000000      -0.26496474      -0.20553734      -0.03708697      -0.03278889      -0.00000000      -0.20856956
2
Lattice="20.0 0.0 0.0 0.0 20.0 0.0 0.0 0.0 20.0" Properties=species:S:1:pos:R:3:quaternions:R:4:c_diameter\[1\]:R:1:c_diameter\[2\]:R:1:c_diameter\[3\]:R:1:forces:R:3:torques:R:3 energy=-0.039834425553461866 pbc="F F F"
X       10.00000000      10.00000000      10.00000000       0.03079108      -0.52740503       0.57098257       0.62839060       1.00000000       2.00000000       1.00000000       0.04108380       0.04443838       0.06530462       0.01140980       0.00000000       0.01651893
X       11.26575996      11.76384735      11.44315554      -0.59310476       0.03007772       0.77753044      -0.20680541       1.00000000       2.00000000       1.00000000      -0.04108380      -0.04443838      -0.06530462      -0.01853519      -0.00000000      -0.04409009
2
Lattice="20.0 0.0 0.0 0.0 20.0 0.0 0.0 0.0 20.0" Properties=species:S:1:pos:R:3:quaternions:R:4:c_diameter\[1\]:R:1:c_diameter\[2\]:R:1:c_diameter\[3\]:R:1:forces:R:3:torques:R:3 energy=-0.02635743064874541 pbc="F F F"
X       10.00000000      10.00000000      10.00000000      -0.01910861       0.46324872       0.77681809       0.42613276       1.00000000       2.00000000       1.00000000       0.02777964       0.03386275       0.01768603      -0.01652676       0.00000000       0.02499685
X       11.76412066      11.93479194      11.84314328      -0.07036521      -0.46315866      -0.53190149       0.70541732       1.00000000       2.00000000       1.00000000      -0.02777964      -0.03386275      -0.01768603      -0.02807256      -0.00000000       0.01066908
2
Lattice="20.0 0.0 0.0 0.0 20.0 0.0 0.0 0.0 20.0" Properties=species:S:1:pos:R:3:quaternions:R:4:c_diameter\[1\]:R:1:c_diameter\[2\]:R:1:c_diameter\[3\]:R:1:forces:R:3:torques:R:3 energy=-0.07822016473848974 pbc="F F F"
X       10.00000000      10.00000000      10.00000000      -0.29392896       0.48089186      -0.12617874       0.81635024       1.00000000       2.00000000       1.00000000       0.09257439       0.03440615       0.16483284       0.04173609      -0.00000000      -0.09652701
X       11.42260045      11.27710601      11.75510025       0.81991538      -0.06762150      -0.56453643       0.06681861       1.00000000       2.00000000       1.00000000      -0.09257439      -0.03440615      -0.16483284      -0.10020155      -0.00000000      -0.03269385
2
Lattice="20.0 0.0 0.0 0.0 20.0 0.0 0.0 0.0 20.0" Properties=species:S:1:pos:R:3:quaternions:R:4:c_diameter\[1\]:R:1:c_diameter\[2\]:R:1:c_diameter\[3\]:R:1:forces:R:3:torques:R:3 energy=-0.043644987706815165 pbc="F F F"
X       10.00000000      10.00000000      10.00000000       0.07431615       0.93328614      -0.08723532       0.34035875       1.00000000       2.00000000       1.00000000       0.06893619       0.05794281       0.04232626       0.01337614      -0.00000000      -0.04681826
X       11.69253083      11.85882883      11.13320873       0.44674619      -0.29268114       0.05577137       0.84359063       1.00000000       2.00000000       1.00000000      -0.06893619      -0.05794281      -0.04232626       0.00302960       0.00000000      -0.01571428
2
Lattice="20.0 0.0 0.0 0.0 20.0 0.0 0.0 0.0 20.0" Properties=species:S:1:pos:R:3:quaternions:R:4:c_diameter\[1\]:R:1:c_diameter\[2\]:R:1:c_diameter\[3\]:R:1:forces:R:3:torques:R:3 energy=-0.01738355683585058 pbc="F F F"
X       10.00000000      10.00000000      10.00000000       0.24641804       0.96084869      -0.09827772       0.07993389       1.00000000       2.00000000       1.00000000       0.01743818       0.00955285       0.01947238      -0.00367682      -0.00000000      -0.01914383
X       11.99673543      11.80513545      11.94189021      -0.17141225       0.82707935      -0.51058165      -0.16082279       1.00000000       2.00000000       1.00000000      -0.01743818      -0.00955285      -0.01947238      -0.01525682      -0.00000000       0.00587449
2
Lattice="20.0 0.0 0.0 0.0 20.0 0.0 0.0 0.0 20.0" Properties=species:S:1:pos:R:3:quaternions:R:4:c_diameter\[1\]:R:1:c_diameter\[2\]:R:1:c_diameter\[3\]:R:1:forces:R:3:torques:R:3 energy=-0.026028182734920507 pbc="F F F"
X       10.00000000      10.00000000      10.00000000       0.77360701       0.39312396      -0.04562511      -0.49487787       1.00000000       2.00000000       1.00000000       0.00418523       0.03734601       0.03060754       0.01973894       0.00000000      -0.02003874
X       11.05042239      11.81687355      11.94090168       0.71904901       0.00283450      -0.03686589      -0.69397507       1.00000000       2.00000000       1.00000000      -0.00418523      -0.03734601      -0.03060754       0.02326564       0.00000000      -0.00729598
2
Lattice="20.0 0.0 0.0 0.0 20.0 0.0 0.0 0.0 20.0" Properties=species:S:1:pos:R:3:quaternions:R:4:c_diameter\[1\]:R:1:c_diameter\[2\]:R:1:c_diameter\[3\]:R:1:forces:R:3:torques:R:3 energy=-0.04676629740660656 pbc="F F F"
X       10.00000000      10.00000000      10.00000000       0.90580044      -0.00897622      -0.27702726       0.32046978       1.00000000       2.00000000       1.00000000       0.04451961       0.07555413       0.06686605      -0.05814135      -0.00000000      -0.03284911
X       11.46434737      11.94898342      11.11702817       0.47843065       0.24603765       0.23157023       0.81052133       1.00000000       2.00000000       1.00000000      -0.04451961      -0.07555413      -0.06686605      -0.02465781      -0.00000000      -0.01321811
2
Lattice="20.0 0.0 0.0 0.0 20.0 0.0 0.0 0.0 20.0" Properties=species:S:1:pos:R:3:quaternions:R:4:c_diameter\[1\]:R:1:c_diameter\[2\]:R:1:c_diameter\[3\]:R:1:forces:R:3:torques:R:3 energy=-0.10447709936483959 pbc="F F F"
X       10.00000000      10.00000000      10.00000000       0.20765109       0.90732726      -0.36533251       0.01305443       1.00000000       2.00000000       1.00000000       0.18175069       0.05847734       0.20507429      -0.13736165      -0.00000000      -0.00161481
X       11.57814524      11.29231037      11.81119123      -0.12355267      -0.62376300      -0.28669425       0.71656183       1.00000000       2.00000000       1.00000000      -0.18175069      -0.05847734      -0.20507429      -0.14333157      -0.00000000       0.08568184
2
Lattice="20.0 0.0 0.0 0.0 20.0 0.0 0.0 0.0 20.0" Properties=species:S:1:pos:R:3:quaternions:R:4:c_diameter\[1\]:R:1:c_diameter\[2\]:R:1:c_diameter\[3\]:R:1:forces:R:3:torques:R:3 energy=-0.01945096994071658 pbc="F F F"
X       10.00000000      10.00000000      10.00000000      -0.07020441      -0.34692796       0.48204705       0.80146302       1.00000000       2.00000000       1.00000000       0.02249809       0.01547630       0.02164790       0.00530097      -0.00000000       0.00658430
X       11.58249329      11.81177707      11.60952129      -0.22795629      -0.09251325       0.95867341       0.14290736       1.00000000       2.00000000       1.00000000      -0.02249809      -0.01547630      -0.02164790      -0.00120703      -0.00000000      -0.02004098
2
Lattice="20.0 0.0 0.0 0.0 20.0 0.0 0.0 0.0 20.0" Properties=species:S:1:pos:R:3:quaternions:R:4:c_diameter\[1\]:R:1:c_diameter\[2\]:R:1:c_diameter\[3\]:R:1:forces:R:3:torques:R:3 energy=-0.1952949741235727 pbc="F F F"
X       10.00000000      10.00000000      10.00000000      -0.40660090       0.86350292       0.04740946      -0.29460272       1.00000000       2.00000000       1.00000000       0.37525026       0.55036493       0.30891032       0.08888476      -0.00000000       0.08236693
X       11.44370707      11.14175085      11.01534748       0.22750670      -0.45327982       0.75460046      -0.41636073       1.00000000       2.00000000       1.00000000      -0.37525026      -0.55036493      -0.30891032      -0.35450989       0.00000000       0.04106315
2
Lattice="20.0 0.0 0.0 0.0 20.0 0.0 0.0 0.0 20.0" Properties=species:S:1:pos:R:3:quaternions:R:4:c_diameter\[1\]:R:1:c_diameter\[2\]:R:1:c_diameter\[3\]:R:1:forces:R:3:torques:R:3 energy=-0.17814488196341144 pbc="F F F"
X       10.00000000      10.00000000      10.00000000       0.36786179      -0.35890084       0.48481819       0.70768582       1.00000000       2.00000000       1.00000000       0.49539072       0.42357648       0.19724441       0.01213586      -0.00000000      -0.22604809
X       11.18629027      11.31362586      11.05186122       0.90756677      -0.35935745       0.16467448      -0.14165839       1.00000000       2.00000000       1.00000000      -0.49539072      -0.42357648      -0.19724441       0.05833992      -0.00000000       0.27612064
2
Lattice="20.0 0.0 0.0 0.0 20.0 0.0 0.0 0.0 20.0" Properties=species:S:1:pos:R:3:quaternions:R:4:c_diameter\[1\]:R:1:c_diameter\[2\]:R:1:c_diameter\[3\]:R:1:forces:R:3:torques:R:3 energy=-0.018377787228988442 pbc="F F F"
X       10.00000000      10.00000000      10.00000000       0.78571884      -0.07005895       0.00399181      -0.61459068       1.00000000       2.00000000       1.00000000       0.01528229       0.02178169       0.01697847       0.00351372      -0.00000000      -0.01566943
X       11.93600979      11.71269848      11.37521356       0.70797132      -0.21904861      -0.32369129      -0.58823317       1.00000000       2.00000000       1.00000000      -0.01528229      -0.02178169      -0.01697847       0.00678141       0.00000000       0.00085369
2
Lattice="20.0 0.0 0.0 0.0 20.0 0.0 0.0 0.0 20.0" Properties=species:S:1:pos:R:3:quaternions:R:4:c_diameter\[1\]:R:1:c_diameter\[2\]:R:1:c_diameter\[3\]:R:1:forces:R:3:torques:R:3 energy=-0.036287547021518325 pbc="F F F"
X       10.00000000      10.00000000      10.00000000       0.85287553      -0.06008074       0.00305310      -0.51863697       1.00000000       2.00000000       1.00000000       0.04307450       0.06209365       0.02664928       0.00351345      -0.00000000      -0.00905728
X       11.42092078      11.78976317      11.42724892       0.11544178       0.29896961      -0.61816157       0.71775110       1.00000000       2.00000000       1.00000000      -0.04307450      -0.06209365      -0.02664928      -0.01736692       0.00000000       0.04535082
2
Lattice="20.0 0.0 0.0 0.0 20.0 0.0 0.0 0.0 20.0" Properties=species:S:1:pos:R:3:quaternions:R:4:c_diameter\[1\]:R:1:c_diameter\[2\]:R:1:c_diameter\[3\]:R:1:forces:R:3:torques:R:3 energy=-0.018731172551203885 pbc="F F F"
X       10.00000000      10.00000000      10.00000000      -0.48517437       0.57448750       0.10686205       0.65050015       1.00000000       2.00000000       1.00000000       0.01282615       0.02226855       0.01838147       0.00818245      -0.00000000      -0.01105482
X       11.93233302      11.95261358      11.48693073      -0.05321363       0.66664209       0.72851695       0.14839032       1.00000000       2.00000000       1.00000000      -0.01282615      -0.02226855      -0.01838147       0.00259694       0.00000000       0.02109171
2
Lattice="20.0 0.0 0.0 0.0 20.0 0.0 0.0 0.0 20.0" Properties=species:S:1:pos:R:3:quaternions:R:4:c_diameter\[1\]:R:1:c_diameter\[2\]:R:1:c_diameter\[3\]:R:1:forces:R:3:torques:R:3 energy=-0.2493814356779074 pbc="F F F"
X       10.00000000      10.00000000      10.00000000      -0.55006707      -0.07926786       0.61144239      -0.56327704       1.00000000       2.00000000       1.00000000       0.64568612       0.39510936       0.60906981      -0.00203903      -0.00000000      -0.00495925
X       11.47852989      11.04657169      11.45281928       0.62700644      -0.49699880      -0.59987815      -0.00114995       1.00000000       2.00000000       1.00000000      -0.64568612      -0.39510936      -0.60906981      -0.10447661       0.00000000      -0.03745973
2
Lattice="20.0 0.0 0.0 0.0 20.0 0.0 0.0 0.0 20.0" Properties=species:S:1:pos:R:3:quaternions:R:4:c_diameter\[1\]:R:1:c_diameter\[2\]:R:1:c_diameter\[3\]:R:1:forces:R:3:torques:R:3 energy=-0.023257753821559684 pbc="F F F"
X       10.00000000      10.00000000      10.00000000       0.32849131       0.75024103      -0.07185585       0.56927023       1.00000000       2.00000000       1.00000000       0.02531663       0.01783451       0.03063772       0.01613126       0.00000000      -0.01805260
X       11.67538970      11.50069083      11.94850365       0.68991988       0.07306210      -0.03373051       0.71939888       1.00000000       2.00000000       1.00000000      -0.02531663      -0.01783451      -0.03063772      -0.01769478       0.00000000      -0.00645189
2
Lattice="20.0 0.0 0.0 0.0 20.0 0.0 0.0 0.0 20.0" Properties=species:S:1:pos:R:3:quaternions:R:4:c_diameter\[1\]:R:1:c_diameter\[2\]:R:1:c_diameter\[3\]:R:1:forces:R:3:torques:R:3 energy=-0.049604013641352286 pbc="F F F"
X       10.00000000      10.00000000      10.00000000       0.11967801       0.76029665      -0.34034668      -0.54017618       1.00000000       2.00000000       1.00000000       0.05367183       0.06499558       0.07377530      -0.02221836      -0.00000000       0.06289108
X       11.20810030      11.93157733      11.81897867       0.27447485      -0.20804883       0.80874449       0.47677206       1.00000000       2.00000000       1.00000000      -0.05367183      -0.06499558      -0.07377530       0.01744301      -0.00000000      -0.06202781
2
Lattice="20.0 0.0 0.0 0.0 20.0 0.0 0.0 0.0 20.0" Properties=species:S:1:pos:R:3:quaternions:R:4:c_diameter\[1\]:R:1:c_diameter\[2\]:R:1:c_diameter\[3\]:R:1:forces:R:3:torques:R:3 energy=-0.024293850649523697 pbc="F F F"
X       10.00000000      10.00000000      10.00000000      -0.22925508      -0.52506796      -0.41083194       0.70919875       1.00000000       2.00000000       1.00000000       0.03400971       0.01153049       0.02392023      -0.03016213      -0.00000000       0.00290519
X       11.98867659      11.56698481      11.79245755      -0.05407838       0.98241709      -0.17426966       0.03952565       1.00000000       2.00000000       1.00000000      -0.03400971      -0.01153049      -0.02392023      -0.02508949      -0.00000000      -0.01580591
2
Lattice="20.0 0.0 0.0 0.0 20.0 0.0 0.0 0.0 20.0" Properties=species:S:1:pos:R:3:quaternions:R:4:c_diameter\[1\]:R:1:c_diameter\[2\]:R:1:c_diameter\[3\]:R:1:forces:R:3:torques:R:3 energy=-0.22230580356718183 pbc="F F F"
X       10.00000000      10.00000000      10.00000000      -0.41857521      -0.55311319       0.70953192      -0.12419761       1.00000000       2.00000000       1.00000000       0.52181086       0.59008288       0.31974232       0.14451436      -0.00000000       0.30448240
X       11.18704125      11.50835269      11.28671221       0.88615032      -0.28141592       0.34548915       0.12720043       1.00000000       2.00000000       1.00000000      -0.52181086      -0.59008288      -0.31974232       0.32556515      -0.00000000       0.26085743
2
Lattice="20.0 0.0 0.0 0.0 20.0 0.0 0.0 0.0 20.0" Properties=species:S:1:pos:R:3:quaternions:R:4:c_diameter\[1\]:R:1:c_diameter\[2\]:R:1:c_diameter\[3\]:R:1:forces:R:3:torques:R:3 energy=-0.024749649024212814 pbc="F F F"
X       10.00000000      10.00000000      10.00000000       0.64514772      -0.17979852      -0.58717234       0.45462684       1.00000000       2.00000000       1.00000000       0.02036417       0.03546719       0.02190673       0.00518047      -0.00000000      -0.02951706
X       11.85566457      11.98618679      11.32527743       0.73160404       0.62601857      -0.24671917      -0.10948029       1.00000000       2.00000000       1.00000000      -0.02036417      -0.03546719      -0.02190673       0.02615994      -0.00000000      -0.00313920
2
Lattice="20.0 0.0 0.0 0.0 20.0 0.0 0.0 0.0 20.0" Properties=species:S:1:pos:R:3:quaternions:R:4:c_diameter\[1\]:R:1:c_diameter\[2\]:R:1:c_diameter\[3\]:R:1:forces:R:3:torques:R:3 energy=-0.07815674145147253 pbc="F F F"
X       10.00000000      10.00000000      10.00000000       0.10301145       0.76899505      -0.42912592      -0.46247832       1.00000000       2.00000000       1.00000000       0.05586779       0.10418884       0.14909746      -0.03310762      -0.00000000       0.10477886
X       11.17866870      11.82916412      11.85921226      -0.07521119       0.34704403      -0.39765772       0.84603313       1.00000000       2.00000000       1.00000000      -0.05586779      -0.10418884      -0.14909746       0.01201452      -0.00000000       0.00429518
2
Lattice="20.0 0.0 0.0 0.0 20.0 0.0 0.0 0.0 20.0" Properties=species:S:1:pos:R:3:quaternions:R:4:c_diameter\[1\]:R:1:c_diameter\[2\]:R:1:c_diameter\[3\]:R:1:forces:R:3:torques:R:3 energy=-0.04218856684715685 pbc="F F F"
X       10.00000000      10.00000000      10.00000000       0.57262803      -0.27105680       0.26898778       0.72544533       1.00000000       2.00000000       1.00000000       0.01929807       0.07446274       0.03273411      -0.01243172      -0.00000000      -0.04196971
X       11.28164321      11.86066134      11.72505427       0.75176021       0.55610933      -0.29639660      -0.19428856       1.00000000       2.00000000       1.00000000      -0.01929807      -0.07446274      -0.03273411       0.04677841      -0.00000000       0.00146749
2
Lattice="20.0 0.0 0.0 0.0 20.0 0.0 0.0 0.0 20.0" Properties=species:S:1:pos:R:3:quaternions:R:4:c_diameter\[1\]:R:1:c_diameter\[2\]:R:1:c_diameter\[3\]:R:1:forces:R:3:torques:R:3 energy=-0.07551861094457081 pbc="F F F"
X       10.00000000      10.00000000      10.00000000       0.16048117       0.61900803       0.41634731       0.64632017       1.00000000       2.00000000       1.00000000       0.12691849       0.14115844       0.12580691      -0.05182410       0.00000000       0.05004292
X       11.36461357      11.07276445      11.29093730      -0.32882245       0.03961821       0.74527019      -0.57868690       1.00000000       2.00000000       1.00000000      -0.12691849      -0.14115844      -0.12580691       0.00200923       0.00000000       0.01407233
2
Lattice="20.0 0.0 0.0 0.0 20.0 0.0 0.0 0.0 20.0" Properties=species:S:1:pos:R:3:quaternions:R:4:c_diameter\[1\]:R:1:c_diameter\[2\]:R:1:c_diameter\[3\]:R:1:forces:R:3:torques:R:3 energy=-0.054620998423752884 pbc="F F F"
X       10.00000000      10.00000000      10.00000000      -0.42289472       0.70392863       0.53504964       0.19840973       1.00000000       2.00000000       1.00000000       0.04187734       0.09970200       0.08446105       0.04151437       0.00000000       0.05994238
X       11.06458866      11.79760138      11.57970100      -0.19760793       0.97859236      -0.03879648      -0.04246100       1.00000000       2.00000000       1.00000000      -0.04187734      -0.09970200      -0.08446105      -0.05446055      -0.00000000      -0.00722213
2
Lattice="20.0 0.0 0.0 0.0 20.0 0.0 0.0 0.0 20.0" Properties=species:S:1:pos:R:3:quaternions:R:4:c_diameter\[1\]:R:1:c_diameter\[2\]:R:1:c_diameter\[3\]:R:1:forces:R:3:torques:R:3 energy=-0.02638817777739909 pbc="F F F"
X       10.00000000      10.00000000      10.00000000       0.35531001      -0.42533370       0.76654269      -0.32443542       1.00000000       2.00000000       1.00000000       0.01647222       0.03327638       0.03722807      -0.01656715       0.00000000       0.00298390
X       11.05473008      11.47408625      11.89935791      -0.31216771      -0.41879356       0.70641585       0.47763996       1.00000000       2.00000000       1.00000000      -0.01647222      -0.03327638      -0.03722807      -0.00589629      -0.00000000       0.00184618
2
Lattice="20.0 0.0 0.0 0.0 20.0 0.0 0.0 0.0 20.0" Properties=species:S:1:pos:R:3:quaternions:R:4:c_diameter\[1\]:R:1:c_diameter\[2\]:R:1:c_diameter\[3\]:R:1:forces:R:3:torques:R:3 energy=-0.028939399190198296 pbc="F F F"
X       10.00000000      10.00000000      10.00000000       0.78107363      -0.11615656      -0.55344640      -0.26481829       1.00000000       2.00000000       1.00000000       0.04510950       0.02224353       0.02454654      -0.02937175       0.00000000      -0.00922344
X       11.66404125      11.64806063      11.55602455       0.65979746      -0.07869258      -0.51071630      -0.54556727       1.00000000       2.00000000       1.00000000      -0.04510950      -0.02224353      -0.02454654      -0.02114220      -0.00000000       0.00995013
2
Lattice="20.0 0.0 0.0 0.0 20.0 0.0 0.0 0.0 20.0" Properties=species:S:1:pos:R:3:quaternions:R:4:c_diameter\[1\]:R:1:c_diameter\[2\]:R:1:c_diameter\[3\]:R:1:forces:R:3:torques:R:3 energy=-0.2054957112098801 pbc="F F F"
X       10.00000000      10.00000000      10.00000000      -0.36901033       0.40210804      -0.26759581       0.79406107       1.00000000       2.00000000       1.00000000       0.43026444       0.23390660       0.63140994       0.24449323      -0.00000000      -0.35271181
X       11.39638869      11.00994549      11.36043593       0.25222479       0.54041969       0.07481462       0.79920710       1.00000000       2.00000000       1.00000000      -0.43026444      -0.23390660      -0.63140994       0.11731317      -0.00000000      -0.03564287
2
Lattice="20.0 0.0 0.0 0.0 20.0 0.0 0.0 0.0 20.0" Properties=species:S:1:pos:R:3:quaternions:R:4:c_diameter\[1\]:R:1:c_diameter\[2\]:R:1:c_diameter\[3\]:R:1:forces:R:3:torques:R:3 energy=-0.03201444646522335 pbc="F F F"
X       10.00000000      10.00000000      10.00000000       0.03825577       0.79230125       0.59872376       0.11101839       1.00000000       2.00000000       1.00000000       0.03773588       0.04557883       0.03202602       0.00437124      -0.00000000       0.02511993
X       11.45562021      11.68548243      11.70876061       0.44372358       0.83230010       0.25743856      -0.21002693       1.00000000       2.00000000       1.00000000      -0.03773588      -0.04557883      -0.03202602      -0.00379972      -0.00000000      -0.03888404
2
Lattice="20.0 0.0 0.0 0.0 20.0 0.0 0.0 0.0 20.0" Properties=species:S:1:pos:R:3:quaternions:R:4:c_diameter\[1\]:R:1:c_diameter\[2\]:R:1:c_diameter\[3\]:R:1:forces:R:3:torques:R:3 energy=-0.03213099072050094 pbc="F F F"
X       10.00000000      10.00000000      10.00000000      -0.52321646       0.28086193       0.69907684       0.39831230       1.00000000       2.00000000       1.00000000       0.03840320       0.02708084       0.04290712      -0.04017597      -0.00000000      -0.00467051
X       11.43115752      11.77597560      11.99773921       0.44645135       0.28042423       0.84926585      -0.02812415       1.00000000       2.00000000       1.00000000      -0.03840320      -0.02708084      -0.04290712       0.02856486       0.00000000       0.02154847
2
Lattice="20.0 0.0 0.0 0.0 20.0 0.0 0.0 0.0 20.0" Properties=species:S:1:pos:R:3:quaternions:R:4:c_diameter\[1\]:R:1:c_diameter\[2\]:R:1:c_diameter\[3\]:R:1:forces:R:3:torques:R:3 energy=-0.32714555812709134 pbc="F F F"
X       10.00000000      10.00000000      10.00000000      -0.54234626      -0.21831640       0.08797469       0.80651034       1.00000000       2.00000000       1.00000000       0.57587147       0.48918986       0.87204337       0.54504866      -0.00000000      -0.05618674
X       11.75844577      11.27233289      11.14943262      -0.51229810       0.29751023       0.76138160      -0.26331802       1.00000000       2.00000000       1.00000000      -0.57587147      -0.48918986      -0.87204337       0.03542800       0.00000000      -0.60618323
2
Lattice="20.0 0.0 0.0 0.0 20.0 0.0 0.0 0.0 20.0" Properties=species:S:1:pos:R:3:quaternions:R:4:c_diameter\[1\]:R:1:c_diameter\[2\]:R:1:c_diameter\[3\]:R:1:forces:R:3:torques:R:3 energy=-0.032335235020626234 pbc="F F F"
X       10.00000000      10.00000000      10.00000000      -0.02090062       0.36414650       0.56633383       0.73907136       1.00000000       2.00000000       1.00000000       0.03053935       0.05469726       0.01896719      -0.02656264       0.00000000       0.02063157
X       11.24195108      11.85165512      11.53466177      -0.40538307       0.33466639       0.53608606       0.66051095       1.00000000       2.00000000       1.00000000      -0.03053935      -0.05469726      -0.01896719      -0.03348156      -0.00000000       0.00302865
2
Lattice="20.0 0.0 0.0 0.0 20.0 0.0 0.0 0.0 20.0" Properties=species:S:1:pos:R:3:quaternions:R:4:c_diameter\[1\]:R:1:c_diameter\[2\]:R:1:c_diameter\[3\]:R:1:forces:R:3:torques:R:3 energy=-0.09205301792959228 pbc="F F F"
X       10.00000000      10.00000000      10.00000000       0.12222596       0.44802828       0.71388756       0.52411451       1.00000000       2.00000000       1.00000000       0.08526845       0.13780428       0.14841436      -0.10441743      -0.00000000       0.10673784
X       11.63335534      11.70804338      11.82080330       0.22876342       0.22388689       0.91378660       0.25007202       1.00000000       2.00000000       1.00000000      -0.08526845      -0.13780428      -0.14841436       0.10552640      -0.00000000       0.02836111
2
Lattice="20.0 0.0 0.0 0.0 20.0 0.0 0.0 0.0 20.0" Properties=species:S:1:pos:R:3:quaternions:R:4:c_diameter\[1\]:R:1:c_diameter\[2\]:R:1:c_diameter\[3\]:R:1:forces:R:3:torques:R:3 energy=-0.04060428341598098 pbc="F F F"
X       10.00000000      10.00000000      10.00000000       0.25147516       0.38630871       0.25492598       0.85002269       1.00000000       2.00000000       1.00000000       0.04146487       0.03970635       0.06651484      -0.02254610      -0.00000000       0.00135409
X       11.78079847      11.29628795      11.90297121      -0.46827397       0.47993293       0.74123925      -0.03079365       1.00000000       2.00000000       1.00000000      -0.04146487      -0.03970635      -0.06651484       0.02480686      -0.00000000      -0.03190997
2
Lattice="20.0 0.0 0.0 0.0 20.0 0.0 0.0 0.0 20.0" Properties=species:S:1:pos:R:3:quaternions:R:4:c_diameter\[1\]:R:1:c_diameter\[2\]:R:1:c_diameter\[3\]:R:1:forces:R:3:torques:R:3 energy=-0.9514283511739547 pbc="F F F"
X       10.00000000      10.00000000      10.00000000      -0.46300712       0.64360812       0.51202165      -0.33049481       1.00000000       2.00000000       1.00000000       2.45199064       2.70672279       3.43572682       1.97164635      -0.00000000      -0.79297403
X       11.13594745      11.15588968      11.38573742      -0.15045180      -0.24050924      -0.31586101       0.90540123       1.00000000       2.00000000       1.00000000      -2.45199064      -2.70672279      -3.43572682      -0.23591715       0.00000000       1.64575060
2
Lattice="20.0 0.0 0.0 0.0 20.0 0.0 0.0 0.0 20.0" Properties=species:S:1:pos:R:3:quaternions:R:4:c_diameter\[1\]:R:1:c_diameter\[2\]:R:1:c_diameter\[3\]:R:1:forces:R:3:torques:R:3 energy=-0.15676326862654832 pbc="F F F"
X       10.00000000      10.00000000      10.00000000      -0.05674340       0.88993916      -0.42421714       0.15756998       1.00000000       2.00000000       1.00000000       0.28219022       0.24889555       0.34483311      -0.27895852      -0.00000000      -0.00822630
X       11.40687453      11.68800153      11.12495022      -0.22666609      -0.08252242       0.96873765       0.05796471       1.00000000       2.00000000       1.00000000      -0.28219022      -0.24889555      -0.34483311       0.02936167      -0.00000000      -0.25361791
2
Lattice="20.0 0.0 0.0 0.0 20.0 0.0 0.0 0.0 20.0" Properties=species:S:1:pos:R:3:quaternions:R:4:c_diameter\[1\]:R:1:c_diameter\[2\]:R:1:c_diameter\[3\]:R:1:forces:R:3:torques:R:3 energy=-0.3563066247139574 pbc="F F F"
X       10.00000000      10.00000000      10.00000000       0.94059227       0.12801021      -0.08270430       0.30341320       1.00000000       2.00000000       1.00000000       0.37707467       1.01375950       1.14239344      -0.68289120       0.00000000      -0.07607303
X       11.11423619      11.31929276      11.24041586       0.68677910       0.31976280       0.03041730      -0.65204371       1.00000000       2.00000000       1.00000000      -0.37707467      -1.01375950      -1.14239344       0.66373275      -0.00000000      -0.45423043
2
Lattice="20.0 0.0 0.0 0.0 20.0 0.0 0.0 0.0 20.0" Properties=species:S:1:pos:R:3:quaternions:R:4:c_diameter\[1\]:R:1:c_diameter\[2\]:R:1:c_diameter\[3\]:R:1:forces:R:3:torques:R:3 energy=-0.07432332255340168 pbc="F F F"
X       10.00000000      10.00000000      10.00000000       0.05185281       0.62008827      -0.05482601       0.78089431       1.00000000       2.00000000       1.00000000       0.15556968       0.06269754       0.09790130       0.08011423       0.00000000      -0.06551639
X       11.50966977      11.45949731      11.29464258       0.36836902       0.87290670       0.14966825       0.28273233       1.00000000       2.00000000       1.00000000      -0.15556968      -0.06269754      -0.09790130       0.05647061       0.00000000      -0.06343753
2
Lattice="20.0 0.0 0.0 0.0 20.0 0.0 0.0 0.0 20.0" Properties=species:S:1:pos:R:3:quaternions:R:4:c_diameter\[1\]:R:1:c_diameter\[2\]:R:1:c_diameter\[3\]:R:1:forces:R:3:torques:R:3 energy=-0.027644409820344103 pbc="F F F"
X       10.00000000      10.00000000      10.00000000      -0.09166189       0.49543927       0.79033313      -0.34858511       1.00000000       2.00000000       1.00000000       0.01593583       0.02710265       0.03915679       0.02562104       0.00000000      -0.01227943
X       11.80971176      11.59289239      11.64429116       0.12853504       0.66186086      -0.65822804      -0.33489519       1.00000000       2.00000000       1.00000000      -0.01593583      -0.02710265      -0.03915679      -0.00114869      -0.00000000       0.02810543
2
Lattice="20.0 0.0 0.0 0.0 20.0 0.0 0.0 0.0 20.0" Properties=species:S:1:pos:R:3:quaternions:R:4:c_diameter\[1\]:R:1:c_diameter\[2\]:R:1:c_diameter\[3\]:R:1:forces:R:3:torques:R:3 energy=-0.243672064873294 pbc="F F F"
X       10.00000000      10.00000000      10.00000000       0.96476045      -0.22855802      -0.07302600       0.10800790       1.00000000       2.00000000       1.00000000       0.52791023       0.49758110       0.19585545      -0.12762996       0.00000000       0.32061257
X       11.39188931      11.96348091      11.24571727       0.49002824       0.81351598      -0.01889949      -0.31258101       1.00000000       2.00000000       1.00000000      -0.52791023      -0.49758110      -0.19585545       0.17653610      -0.00000000      -0.37445647
2
Lattice="20.0 0.0 0.0 0.0 20.0 0.0 0.0 0.0 20.0" Properties=species:S:1:pos:R:3:quaternions:R:4:c_diameter\[1\]:R:1:c_diameter\[2\]:R:1:c_diameter\[3\]:R:1:forces:R:3:torques:R:3 energy=-0.07361200325864996 pbc="F F F"
X       10.00000000      10.00000000      10.00000000       0.41327945       0.60783584       0.66665179      -0.12373792       1.00000000       2.00000000       1.00000000       0.16973799       0.06704451       0.10733737       0.05677966      -0.00000000       0.02808908
X       11.71940607      11.13714171      11.14502745       0.91506190      -0.33639318      -0.17600748      -0.13609819       1.00000000       2.00000000       1.00000000      -0.16973799      -0.06704451      -0.10733737      -0.06953135      -0.00000000       0.07972884
2
Lattice="20.0 0.0 0.0 0.0 20.0 0.0 0.0 0.0 20.0" Properties=species:S:1:pos:R:3:quaternions:R:4:c_diameter\[1\]:R:1:c_diameter\[2\]:R:1:c_diameter\[3\]:R:1:forces:R:3:torques:R:3 energy=-0.02215798567355734 pbc="F F F"
X       10.00000000      10.00000000      10.00000000       0.83573159       0.13029970       0.33986657       0.41117565       1.00000000       2.00000000       1.00000000       0.02366922       0.02049188       0.02412824      -0.01594938       0.00000000       0.01485984
X       11.93689486      11.93815646      11.56116582       0.79367247      -0.14781876      -0.36224878      -0.46584273       1.00000000       2.00000000       1.00000000      -0.02366922      -0.02049188      -0.02412824      -0.00914586      -0.00000000       0.00271621
2
Lattice="20.0 0.0 0.0 0.0 20.0 0.0 0.0 0.0 20.0" Properties=species:S:1:pos:R:3:quaternions:R:4:c_diameter\[1\]:R:1:c_diameter\[2\]:R:1:c_diameter\[3\]:R:1:forces:R:3:torques:R:3 energy=-0.14903534429978543 pbc="F F F"
X       10.00000000      10.00000000      10.00000000       0.61179647       0.00721155       0.71820230       0.33141897       1.00000000       2.00000000       1.00000000       0.17248065       0.24844668       0.37615174       0.07708666       0.00000000       0.17828800
X       11.26166259      11.37761020      11.68027251       0.46826430       0.30140183       0.36571393       0.74574715       1.00000000       2.00000000       1.00000000      -0.17248065      -0.24844668      -0.37615174      -0.20361949      -0.00000000       0.03590789
2
Lattice="20.0 0.0 0.0 0.0 20.0 0.0 0.0 0.0 20.0" Properties=species:S:1:pos:R:3:quaternions:R:4:c_diameter\[1\]:R:1:c_diameter\[2\]:R:1:c_diameter\[3\]:R:1:forces:R:3:torques:R:3 energy=-0.025470359649342137 pbc="F F F"
X       10.00000000      10.00000000      10.00000000       0.68718133       0.30739826       0.39598855      -0.52581480       1.00000000       2.00000000       1.00000000       0.02504298       0.03463883       0.02491557       0.00011548       0.00000000      -0.02993863
X       11.38361941      11.53385655      11.92549947       0.24656808       0.69111801       0.60410400      -0.31083505       1.00000000       2.00000000       1.00000000      -0.02504298      -0.03463883      -0.02491557      -0.01408408      -0.00000000      -0.00503033
2
Lattice="20.0 0.0 0.0 0.0 20.0 0.0 0.0 0.0 20.0" Properties=species:S:1:pos:R:3:quaternions:R:4:c_diameter\[1\]:R:1:c_diameter\[2\]:R:1:c_diameter\[3\]:R:1:forces:R:3:torques:R:3 energy=-0.051840877660363605 pbc="F F F"
X       10.00000000      10.00000000      10.00000000       0.78149171       0.26699504       0.35897542       0.43488044       1.00000000       2.00000000       1.00000000       0.02753234       0.08899999       0.06743628      -0.05134583      -0.00000000       0.04052113
X       11.46915384      11.96486770      11.21602125      -0.12077285       0.75967976       0.63569403      -0.06475866       1.00000000       2.00000000       1.00000000      -0.02753234      -0.08899999      -0.06743628       0.02653020       0.00000000       0.05591453
2
Lattice="20.0 0.0 0.0 0.0 20.0 0.0 0.0 0.0 20.0" Properties=species:S:1:pos:R:3:quaternions:R:4:c_diameter\[1\]:R:1:c_diameter\[2\]:R:1:c_diameter\[3\]:R:1:forces:R:3:torques:R:3 energy=-0.028288808082296384 pbc="F F F"
X       10.00000000      10.00000000      10.00000000       0.91537435       0.01023010      -0.10791783       0.38773559       1.00000000       2.00000000       1.00000000       0.02544739       0.01716413       0.04860226      -0.03218822      -0.00000000       0.00478980
X       11.48213251      11.19274289      11.95990406       0.38565990       0.78394273       0.47272481       0.11502823       1.00000000       2.00000000       1.00000000      -0.02544739      -0.01716413      -0.04860226      -0.00536646      -0.00000000       0.00445606
2
Lattice="20.0 0.0 0.0 0.0 20.0 0.0 0.0 0.0 20.0" Properties=species:S:1:pos:R:3:quaternions:R:4:c_diameter\[1\]:R:1:c_diameter\[2\]:R:1:c_diameter\[3\]:R:1:forces:R:3:torques:R:3 energy=-0.11628537174565214 pbc="F F F"
X       10.00000000      10.00000000      10.00000000       0.83824008      -0.46152991       0.26158623       0.12616002       1.00000000       2.00000000       1.00000000       0.20880668       0.13537385       0.16045239       0.15892698      -0.00000000       0.11922913
X       11.48073158      11.76906352      11.73672333      -0.23059406       0.04356988      -0.22452349       0.94578922       1.00000000       2.00000000       1.00000000      -0.20880668      -0.13537385      -0.16045239       0.12461529      -0.00000000       0.04361513
2
Lattice="20.0 0.0 0.0 0.0 20.0 0.0 0.0 0.0 20.0" Properties=species:S:1:pos:R:3:quaternions:R:4:c_diameter\[1\]:R:1:c_diameter\[2\]:R:1:c_diameter\[3\]:R:1:forces:R:3:torques:R:3 energy=-0.06809924243584868 pbc="F F F"
X       10.00000000      10.00000000      10.00000000       0.29695561       0.29019647      -0.27068108       0.86852468       1.00000000       2.00000000       1.00000000       0.12252757       0.08074873       0.08937645       0.04625195      -0.00000000       0.08403716
X       11.34864098      11.85965791      11.25464735      -0.08840564      -0.11739428       0.06824758       0.98678533       1.00000000       2.00000000       1.00000000      -0.12252757      -0.08074873      -0.08937645       0.07860855      -0.00000000       0.06724465
2
Lattice="20.0 0.0 0.0 0.0 20.0 0.0 0.0 0.0 20.0" Properties=species:S:1:pos:R:3:quaternions:R:4:c_diameter\[1\]:R:1:c_diameter\[2\]:R:1:c_diameter\[3\]:R:1:forces:R:3:torques:R:3 energy=-0.014963890667250243 pbc="F F F"
X       10.00000000      10.00000000      10.00000000       0.59533917      -0.03563706       0.04127866       0.80162170       1.00000000       2.00000000       1.00000000       0.01044063       0.01892365       0.01255276      -0.00534546      -0.00000000      -0.00794445
X       11.43329620      11.89239814      11.73350264      -0.35052688      -0.13455659       0.69996386      -0.60751628       1.00000000       2.00000000       1.00000000      -0.01044063      -0.01892365      -0.01255276      -0.00183909      -0.00000000       0.00819219
2
Lattice="20.0 0.0 0.0 0.0 20.0 0.0 0.0 0.0 20.0" Properties=species:S:1:pos:R:3:quaternions:R:4:c_diameter\[1\]:R:1:c_diameter\[2\]:R:1:c_diameter\[3\]:R:1:forces:R:3:torques:R:3 energy=-0.07743311443834583 pbc="F F F"
X       10.00000000      10.00000000      10.00000000       0.62902920       0.53536088       0.06077173      -0.56037291       1.00000000       2.00000000       1.00000000       0.14903056       0.12642259       0.07986361       0.00925018       0.00000000      -0.09214938
X       11.90241331      11.47091345      11.05686560       0.26424026       0.25828121       0.88138981      -0.29431260       1.00000000       2.00000000       1.00000000      -0.14903056      -0.12642259      -0.07986361       0.07095515      -0.00000000      -0.00113119
2
Lattice="20.0 0.0 0.0 0.0 20.0 0.0 0.0 0.0 20.0" Properties=species:S:1:pos:R:3:quaternions:R:4:c_diameter\[1\]:R:1:c_diameter\[2\]:R:1:c_diameter\[3\]:R:1:forces:R:3:torques:R:3 energy=-0.05505062963538881 pbc="F F F"
X       10.00000000      10.00000000      10.00000000       0.91633217      -0.24007605      -0.22585759      -0.22734820       1.00000000       2.00000000       1.00000000       0.07490543       0.06883021       0.09057016      -0.05590039       0.00000000       0.04094153
X       11.52797051      11.50764647      11.63176550       0.30713779       0.67892175      -0.60670858      -0.27683267       1.00000000       2.00000000       1.00000000      -0.07490543      -0.06883021      -0.09057016      -0.00763453      -0.00000000       0.07249298
2
Lattice="20.0 0.0 0.0 0.0 20.0 0.0 0.0 0.0 20.0" Properties=species:S:1:pos:R:3:quaternions:R:4:c_diameter\[1\]:R:1:c_diameter\[2\]:R:1:c_diameter\[3\]:R:1:forces:R:3:torques:R:3 energy=-0.015405999322641806 pbc="F F F"
X       10.00000000      10.00000000      10.00000000       0.93149799       0.12572455       0.33992619       0.03090326       1.00000000       2.00000000       1.00000000       0.01424836       0.01197033       0.01763060      -0.00562374      -0.00000000       0.01319664
X       11.44294106      11.88446542      11.82841146       0.56288686       0.24227396      -0.20080893       0.76428887       1.00000000       2.00000000       1.00000000      -0.01424836      -0.01197033      -0.01763060       0.00385801       0.00000000       0.00365952
2
Lattice="20.0 0.0 0.0 0.0 20.0 0.0 0.0 0.0 20.0" Properties=species:S:1:pos:R:3:quaternions:R:4:c_diameter\[1\]:R:1:c_diameter\[2\]:R:1:c_diameter\[3\]:R:1:forces:R:3:torques:R:3 energy=-0.029376091389483272 pbc="F F F"
X       10.00000000      10.00000000      10.00000000      -0.63941015       0.74360704       0.18088504       0.07405285       1.00000000       2.00000000       1.00000000       0.04308592       0.03787560       0.02120980       0.01906819      -0.00000000       0.02593939
X       11.86370576      11.36475740      11.34292892       0.61806481       0.54450805       0.04282636       0.56539612       1.00000000       2.00000000       1.00000000      -0.04308592      -0.03787560      -0.02120980      -0.00418135       0.00000000      -0.00562380
2
Lattice="20.0 0.0 0.0 0.0 20.0 0.0 0.0 0.0 20.0" Properties=species:S:1:pos:R:3:quaternions:R:4:c_diameter\[1\]:R:1:c_diameter\[2\]:R:1:c_diameter\[3\]:R:1:forces:R:3:torques:R:3 energy=-0.026353084759795243 pbc="F F F"
X       10.00000000      10.00000000      10.00000000       0.15550625       0.11477629       0.01682839       0.98100001       1.00000000       2.00000000       1.00000000       0.04196106       0.02267210       0.02138482       0.00468330      -0.00000000       0.01509231
X       11.97973232      11.33046490      11.12406781      -0.34654044       0.74818996      -0.04272254      -0.56417753       1.00000000       2.00000000       1.00000000      -0.04196106      -0.02267210      -0.02138482       0.00532671      -0.00000000       0.00431753
2
Lattice="20.0 0.0 0.0 0.0 20.0 0.0 0.0 0.0 20.0" Properties=species:S:1:pos:R:3:quaternions:R:4:c_diameter\[1\]:R:1:c_diameter\[2\]:R:1:c_diameter\[3\]:R:1:forces:R:3:torques:R:3 energy=-0.027945184251700925 pbc="F F F"
X       10.00000000      10.00000000      10.00000000      -0.35735311       0.61094694       0.36191052       0.60668226       1.00000000       2.00000000       1.00000000       0.04465151       0.02923483       0.02566267      -0.01031614       0.00000000       0.00918634
X       11.72628053      11.29590725      11.35400021       0.32288242       0.54112832       0.00538386       0.77646513       1.00000000       2.00000000       1.00000000      -0.04465151      -0.02923483      -0.02566267       0.01472756       0.00000000       0.00021983
2
Lattice="20.0 0.0 0.0 0.0 20.0 0.0 0.0 0.0 20.0" Properties=species:S:1:pos:R:3:quaternions:R:4:c_diameter\[1\]:R:1:c_diameter\[2\]:R:1:c_diameter\[3\]:R:1:forces:R:3:torques:R:3 energy=-0.02413319522746552 pbc="F F F"
X       10.00000000      10.00000000      10.00000000       0.74296894      -0.05658658      -0.36699522      -0.55687487       1.00000000       2.00000000       1.00000000       0.02090087       0.02107738       0.03516007      -0.00493260       0.00000000      -0.00364623
X       11.37504250      11.30011021      11.92633249       0.56705120       0.59248939       0.48594835       0.30209843       1.00000000       2.00000000       1.00000000      -0.02090087      -0.02107738      -0.03516007       0.00097391      -0.00000000       0.01381373
2
Lattice="20.0 0.0 0.0 0.0 20.0 0.0 0.0 0.0 20.0" Properties=species:S:1:pos:R:3:quaternions:R:4:c_diameter\[1\]:R:1:c_diameter\[2\]:R:1:c_diameter\[3\]:R:1:forces:R:3:torques:R:3 energy=-0.05137436418780229 pbc="F F F"
X       10.00000000      10.00000000      10.00000000       0.64256428       0.54992180      -0.33498416      -0.41531046       1.00000000       2.00000000       1.00000000       0.04551932       0.08628135       0.07989312       0.06942235      -0.00000000       0.00969930
X       11.34192646      11.38265379      11.70101032       0.76301574      -0.29977026      -0.07711612      -0.56744857       1.00000000       2.00000000       1.00000000      -0.04551932      -0.08628135      -0.07989312       0.01181678      -0.00000000       0.00573093
2
Lattice="20.0 0.0 0.0 0.0 20.0 0.0 0.0 0.0 20.0" Properties=species:S:1:pos:R:3:quaternions:R:4:c_diameter\[1\]:R:1:c_diameter\[2\]:R:1:c_diameter\[3\]:R:1:forces:R:3:torques:R:3 energy=-0.017197652877264297 pbc="F F F"
X       10.00000000      10.00000000      10.00000000       0.84754491       0.23938358       0.45159224       0.14292510       1.00000000       2.00000000       1.00000000       0.01218213       0.01314400       0.02176605      -0.00690299      -0.00000000       0.01307468
X       11.54069232      11.94850682      11.84483766       0.84206432       0.35669056      -0.35730639       0.18982009       1.00000000       2.00000000       1.00000000      -0.01218213      -0.01314400      -0.02176605      -0.00713464       0.00000000      -0.00048384
2
Lattice="20.0 0.0 0.0 0.0 20.0 0.0 0.0 0.0 20.0" Properties=species:S:1:pos:R:3:quaternions:R:4:c_diameter\[1\]:R:1:c_diameter\[2\]:R:1:c_diameter\[3\]:R:1:forces:R:3:torques:R:3 energy=-0.01632667479619705 pbc="F F F"
X       10.00000000      10.00000000      10.00000000       0.94474293       0.22608843       0.10367512       0.21353289       1.00000000       2.00000000       1.00000000       0.01948541       0.01107404       0.01490660      -0.00901614       0.00000000       0.01022665
X       11.96391458      11.66799706      11.87354000       0.46167422       0.53828882      -0.40471533       0.57732796       1.00000000       2.00000000       1.00000000      -0.01948541      -0.01107404      -0.01490660       0.01591650      -0.00000000       0.00482525
2
Lattice="20.0 0.0 0.0 0.0 20.0 0.0 0.0 0.0 20.0" Properties=species:S:1:pos:R:3:quaternions:R:4:c_diameter\[1\]:R:1:c_diameter\[2\]:R:1:c_diameter\[3\]:R:1:forces:R:3:torques:R:3 energy=-0.07438604522656601 pbc="F F F"
X       10.00000000      10.00000000      10.00000000      -0.20933599       0.80858611      -0.41896735      -0.35613663       1.00000000       2.00000000       1.00000000       0.05345690       0.11165132       0.16224587      -0.02316461      -0.00000000      -0.00320193
X       11.20638086      11.24740452      11.82160640       0.75557592      -0.03482787       0.28273354       0.58987608       1.00000000       2.00000000       1.00000000      -0.05345690      -0.11165132      -0.16224587      -0.10128823      -0.00000000      -0.04674701
2
Lattice="20.0 0.0 0.0 0.0 20.0 0.0 0.0 0.0 20.0" Properties=species:S:1:pos:R:3:quaternions:R:4:c_diameter\[1\]:R:1:c_diameter\[2\]:R:1:c_diameter\[3\]:R:1:forces:R:3:torques:R:3 energy=-0.0234006655546405 pbc="F F F"
X       10.00000000      10.00000000      10.00000000       0.37246881      -0.49257127      -0.10184981       0.77991483       1.00000000       2.00000000       1.00000000       0.03298546       0.02143475       0.01932247       0.00783854       0.00000000      -0.01171963
X       11.98113468      11.23752699      11.82180622       0.71872078      -0.45729828       0.43554451       0.29089466       1.00000000       2.00000000       1.00000000      -0.03298546      -0.02143475      -0.01932247       0.02763667      -0.00000000       0.00398101
2
Lattice="20.0 0.0 0.0 0.0 20.0 0.0 0.0 0.0 20.0" Properties=species:S:1:pos:R:3:quaternions:R:4:c_diameter\[1\]:R:1:c_diameter\[2\]:R:1:c_diameter\[3\]:R:1:forces:R:3:torques:R:3 energy=-0.4960665992046304 pbc="F F F"
X       10.00000000      10.00000000      10.00000000       0.29795172       0.14573468       0.89124490       0.30930357       1.00000000       2.00000000       1.00000000       1.16877425       0.22894992       1.70681925       0.78220382       0.00000000       0.14334641
X       11.19909241      11.01215005      11.58775672      -0.11233977      -0.33897868      -0.04887201       0.93278334       1.00000000       2.00000000       1.00000000      -1.16877425      -0.22894992      -1.70681925       0.19517147       0.00000000       0.83915694
2
Lattice="20.0 0.0 0.0 0.0 20.0 0.0 0.0 0.0 20.0" Properties=species:S:1:pos:R:3:quaternions:R:4:c_diameter\[1\]:R:1:c_diameter\[2\]:R:1:c_diameter\[3\]:R:1:forces:R:3:torques:R:3 energy=-0.05903738514847403 pbc="F F F"
X       10.00000000      10.00000000      10.00000000       0.38119832       0.85393484      -0.35390588       0.01528881       1.00000000       2.00000000       1.00000000       0.04589913       0.08862674       0.10446246      -0.01257769      -0.00000000       0.03619976
X       11.17137039      11.57966364      11.95066424       0.26266714       0.11867067       0.22722989       0.93020956       1.00000000       2.00000000       1.00000000      -0.04589913      -0.08862674      -0.10446246      -0.00874694       0.00000000      -0.00589249
2
Lattice="20.0 0.0 0.0 0.0 20.0 0.0 0.0 0.0 20.0" Properties=species:S:1:pos:R:3:quaternions:R:4:c_diameter\[1\]:R:1:c_diameter\[2\]:R:1:c_diameter\[3\]:R:1:forces:R:3:torques:R:3 energy=-0.08574791767503429 pbc="F F F"
X       10.00000000      10.00000000      10.00000000       0.32519311       0.07417038       0.68666653      -0.64593906       1.00000000       2.00000000       1.00000000       0.19881297       0.10529788       0.10330492      -0.11474168      -0.00000000       0.04237481
X       11.85368779      11.24219578      11.16975966      -0.23511535       0.23484231       0.05415325       0.94161419       1.00000000       2.00000000       1.00000000      -0.19881297      -0.10529788      -0.10330492       0.11839110       0.00000000       0.04488880
2
Lattice="20.0 0.0 0.0 0.0 20.0 0.0 0.0 0.0 20.0" Properties=species:S:1:pos:R:3:quaternions:R:4:c_diameter\[1\]:R:1:c_diameter\[2\]:R:1:c_diameter\[3\]:R:1:forces:R:3:torques:R:3 energy=-0.3380758632007276 pbc="F F F"
X       10.00000000      10.00000000      10.00000000       0.81858718      -0.10567075       0.49810722      -0.26577794       1.00000000       2.00000000       1.00000000       0.82644306       0.68706559       0.94170342       0.14840836      -0.00000000       0.19117243
X       11.07079894      11.49137732      11.14939517       0.11293233       0.98199741      -0.14850905       0.02953696       1.00000000       2.00000000       1.00000000      -0.82644306      -0.68706559      -0.94170342      -0.50686595       0.00000000      -0.28894899
2
Lattice="20.0 0.0 0.0 0.0 20.0 0.0 0.0 0.0 20.0" Properties=species:S:1:pos:R:3:quaternions:R:4:c_diameter\[1\]:R:1:c_diameter\[2\]:R:1:c_diameter\[3\]:R:1:forces:R:3:torques:R:3 energy=-0.270090599507355 pbc="F F F"
X       10.00000000      10.00000000      10.00000000      -0.01604343       0.91865769       0.36221289      -0.15688366       1.00000000       2.00000000       1.00000000       0.74909531       0.81073093       0.29255420      -0.12571070       0.00000000      -0.12024055
X       11.11925656      11.46710965      11.04052988       0.20684891       0.52648080      -0.50380616       0.65284826       1.00000000       2.00000000       1.00000000      -0.74909531      -0.81073093      -0.29255420       0.15757775      -0.00000000       0.58791823
2
Lattice="20.0 0.0 0.0 0.0 20.0 0.0 0.0 0.0 20.0" Properties=species:S:1:pos:R:3:quaternions:R:4:c_diameter\[1\]:R:1:c_diameter\[2\]:R:1:c_diameter\[3\]:R:1:forces:R:3:torques:R:3 energy=-0.09706535269633566 pbc="F F F"
X       10.00000000      10.00000000      10.00000000      -0.08461724       0.66232437       0.41602343       0.61732557       1.00000000       2.00000000       1.00000000       0.14064802       0.18180491       0.15357518      -0.06000416       0.00000000       0.05484616
X       11.71561555      11.37782540      11.39028694       0.49533840       0.63586954      -0.21711396      -0.55060996       1.00000000       2.00000000       1.00000000      -0.14064802      -0.18180491      -0.15357518       0.07258812       0.00000000       0.07245435
2
Lattice="20.0 0.0 0.0 0.0 20.0 0.0 0.0 0.0 20.0" Properties=species:S:1:pos:R:3:quaternions:R:4:c_diameter\[1\]:R:1:c_diameter\[2\]:R:1:c_diameter\[3\]:R:1:forces:R:3:torques:R:3 energy=-0.5170876359256108 pbc="F F F"
X       10.00000000      10.00000000      10.00000000       0.32439204      -0.43388620       0.76730079      -0.34316478       1.00000000       2.00000000       1.00000000       0.66804435       2.00389646       1.17857716      -0.47027398      -0.00000000       0.09814816
X       11.09830286      11.34398240      11.01738542      -0.32802495       0.45022496      -0.55125586       0.62113935       1.00000000       2.00000000       1.00000000      -0.66804435      -2.00389646      -1.17857716      -0.95847113       0.00000000      -0.39755969
2
Lattice="20.0 0.0 0.0 0.0 20.0 0.0 0.0 0.0 20.0" Properties=species:S:1:pos:R:3:quaternions:R:4:c_diameter\[1\]:R:1:c_diameter\[2\]:R:1:c_diameter\[3\]:R:1:forces:R:3:torques:R:3 energy=-0.16470548873330568 pbc="F F F"
X       10.00000000      10.00000000      10.00000000      -0.57759344       0.41712950      -0.36546988       0.59901633       1.00000000       2.00000000       1.00000000       0.32413450       0.39278222       0.34937025      -0.12316817       0.00000000      -0.29789586
X       11.51949641      11.05136725      11.06150668      -0.00411712       0.04396400       0.46785449       0.88270176       1.00000000       2.00000000       1.00000000      -0.32413450      -0.39278222      -0.34937025      -0.07866900      -0.00000000      -0.03967292
2
Lattice="20.0 0.0 0.0 0.0 20.0 0.0 0.0 0.0 20.0" Properties=species:S:1:pos:R:3:quaternions:R:4:c_diameter\[1\]:R:1:c_diameter\[2\]:R:1:c_diameter\[3\]:R:1:forces:R:3:torques:R:3 energy=-0.061757737410628795 pbc="F F F"
X       10.00000000      10.00000000      10.00000000       0.84667536      -0.15763974      -0.50783387       0.01988230       1.00000000       2.00000000       1.00000000       0.09770940       0.07436814       0.09557792      -0.06937597      -0.00000000      -0.04092416
X       11.36094934      11.77117293      11.39271236       0.32809976      -0.36231617      -0.32002250       0.81158064       1.00000000       2.00000000       1.00000000      -0.09770940      -0.07436814      -0.09557792      -0.02278413      -0.00000000       0.02127651
2
Lattice="20.0 0.0 0.0 0.0 20.0 0.0 0.0 0.0 20.0" Properties=species:S:1:pos:R:3:quaternions:R:4:c_diameter\[1\]:R:1:c_diameter\[2\]:R:1:c_diameter\[3\]:R:1:forces:R:3:torques:R:3 energy=-0.09885597327898062 pbc="F F F"
X       10.00000000      10.00000000      10.00000000      -0.10803061       0.51990511      -0.37723121       0.75876523       1.00000000       2.00000000       1.00000000       0.20683955       0.06870417       0.15274486       0.07121877      -0.00000000      -0.06235737
X       11.74782163      11.30667982      11.56974833       0.34604906       0.91490903       0.10894891       0.17697923       1.00000000       2.00000000       1.00000000      -0.20683955      -0.06870417      -0.15274486       0.01931120      -0.00000000      -0.13015562
2
Lattice="20.0 0.0 0.0 0.0 20.0 0.0 0.0 0.0 20.0" Properties=species:S:1:pos:R:3:quaternions:R:4:c_diameter\[1\]:R:1:c_diameter\[2\]:R:1:c_diameter\[3\]:R:1:forces:R:3:torques:R:3 energy=-0.47384859457180845 pbc="F F F"
X       10.00000000      10.00000000      10.00000000      -0.27996652      -0.49784538       0.69575901      -0.43553200       1.00000000       2.00000000       1.00000000       1.53908943       1.39698708       0.56062772       0.14949826       0.00000000       0.94916212
X       11.25524101      11.41922481      11.14072745      -0.39615850       0.19990721       0.86607383       0.23024262       1.00000000       2.00000000       1.00000000      -1.53908943      -1.39698708      -0.56062772      -0.86323370       0.00000000      -0.56807021
2
Lattice="20.0 0.0 0.0 0.0 20.0 0.0 0.0 0.0 20.0" Properties=species:S:1:pos:R:3:quaternions:R:4:c_diameter\[1\]:R:1:c_diameter\[2\]:R:1:c_diameter\[3\]:R:1:forces:R:3:torques:R:3 energy=-0.055659426908389924 pbc="F F F"
X       10.00000000      10.00000000      10.00000000       0.88067721      -0.09609874       0.44546971       0.12934225       1.00000000       2.00000000       1.00000000       0.10523515       0.03884266       0.08318912       0.00555222      -0.00000000       0.08082746
X       11.55593203      11.27925758      11.53836718      -0.47839307      -0.02491403       0.64724133       0.59295702       1.00000000       2.00000000       1.00000000      -0.10523515      -0.03884266      -0.08318912      -0.03746045       0.00000000      -0.00809722
2
Lattice="20.0 0.0 0.0 0.0 20.0 0.0 0.0 0.0 20.0" Properties=species:S:1:pos:R:3:quaternions:R:4:c_diameter\[1\]:R:1:c_diameter\[2\]:R:1:c_diameter\[3\]:R:1:forces:R:3:torques:R:3 energy=-0.14951465742867034 pbc="F F F"
X       10.00000000      10.00000000      10.00000000      -0.45773607       0.47323003      -0.07323949       0.74911081       1.00000000       2.00000000       1.00000000       0.30874906       0.12590753       0.31697642       0.11749547       0.00000000      -0.22029828
X       11.71588521      11.35299025      11.19090998       0.02586301       0.85638788      -0.20979960       0.47107859       1.00000000       2.00000000       1.00000000      -0.30874906      -0.12590753      -0.31697642       0.12946059      -0.00000000      -0.22421879
2
Lattice="20.0 0.0 0.0 0.0 20.0 0.0 0.0 0.0 20.0" Properties=species:S:1:pos:R:3:quaternions:R:4:c_diameter\[1\]:R:1:c_diameter\[2\]:R:1:c_diameter\[3\]:R:1:forces:R:3:torques:R:3 energy=-0.13945078802664837 pbc="F F F"
X       10.00000000      10.00000000      10.00000000       0.57875579       0.59148541      -0.54321255      -0.14179867       1.00000000       2.00000000       1.00000000       0.17691405       0.28666573       0.35462151       0.10277253      -0.00000000       0.20998203
X       11.08429412      11.29813455      11.45530224      -0.07161695       0.91561115       0.06344748       0.39051460       1.00000000       2.00000000       1.00000000      -0.17691405      -0.28666573      -0.35462151      -0.07724453      -0.00000000      -0.17341575
2
Lattice="20.0 0.0 0.0 0.0 20.0 0.0 0.0 0.0 20.0" Properties=species:S:1:pos:R:3:quaternions:R:4:c_diameter\[1\]:R:1:c_diameter\[2\]:R:1:c_diameter\[3\]:R:1:forces:R:3:torques:R:3 energy=-0.021802816968603148 pbc="F F F"
X       10.00000000      10.00000000      10.00000000      -0.39283055       0.90637510      -0.14566745       0.05430775       1.00000000       2.00000000       1.00000000       0.02714518       0.01587327       0.02458801      -0.00226915      -0.00000000      -0.00138472
X       11.55144290      11.60853048      11.95597045       0.45059967      -0.21461553       0.82347895       0.26978238       1.00000000       2.00000000       1.00000000      -0.02714518      -0.01587327      -0.02458801       0.02463564      -0.00000000      -0.00693191
2
Lattice="20.0 0.0 0.0 0.0 20.0 0.0 0.0 0.0 20.0" Properties=species:S:1:pos:R:3:quaternions:R:4:c_diameter\[1\]:R:1:c_diameter\[2\]:R:1:c_diameter\[3\]:R:1:forces:R:3:torques:R:3 energy=-0.01793706492652005 pbc="F F F"
X       10.00000000      10.00000000      10.00000000       0.31024180       0.31046554       0.27315163       0.85600781       1.00000000       2.00000000       1.00000000       0.01304272       0.02021809       0.02187306      -0.00399148      -0.00000000      -0.00166551
X       11.20117760      11.61397637      11.84043128       0.76838935       0.41253548       0.01537597       0.48903566       1.00000000       2.00000000       1.00000000      -0.01304272      -0.02021809      -0.02187306      -0.00111675       0.00000000       0.00170685
2
Lattice="20.0 0.0 0.0 0.0 20.0 0.0 0.0 0.0 20.0" Properties=species:S:1:pos:R:3:quaternions:R:4:c_diameter\[1\]:R:1:c_diameter\[2\]:R:1:c_diameter\[3\]:R:1:forces:R:3:torques:R:3 energy=-0.05511441992730926 pbc="F F F"
X       10.00000000      10.00000000      10.00000000      -0.21099132       0.76667778      -0.27747001      -0.53916439       1.00000000       2.00000000       1.00000000       0.09381114       0.06344121       0.09258724      -0.00739603      -0.00000000       0.00029636
X       11.13447696      11.21322677      11.66376890       0.72827832      -0.49623904       0.47241941      -0.01331939       1.00000000       2.00000000       1.00000000      -0.09381114      -0.06344121      -0.09258724       0.04848914      -0.00000000       0.04641792
2
Lattice="20.0 0.0 0.0 0.0 20.0 0.0 0.0 0.0 20.0" Properties=species:S:1:pos:R:3:quaternions:R:4:c_diameter\[1\]:R:1:c_diameter\[2\]:R:1:c_diameter\[3\]:R:1:forces:R:3:torques:R:3 energy=-0.037353631764284016 pbc="F F F"
X       10.00000000      10.00000000      10.00000000       0.64706476       0.14201597      -0.49282457      -0.56414768       1.00000000       2.00000000       1.00000000       0.03585670       0.05386091       0.05497973       0.00906607       0.00000000      -0.00859280
X       11.29511390      11.62657729      11.31085178      -0.55941236       0.51261130       0.02926540       0.65071576       1.00000000       2.00000000       1.00000000      -0.03585670      -0.05386091      -0.05497973       0.01692563      -0.00000000      -0.02313176
2
Lattice="20.0 0.0 0.0 0.0 20.0 0.0 0.0 0.0 20.0" Properties=species:S:1:pos:R:3:quaternions:R:4:c_diameter\[1\]:R:1:c_diameter\[2\]:R:1:c_diameter\[3\]:R:1:forces:R:3:torques:R:3 energy=-0.07321496877481642 pbc="F F F"
X       10.00000000      10.00000000      10.00000000       0.11701847       0.71752739       0.43192121      -0.53376511       1.00000000       2.00000000       1.00000000       0.10653946       0.14127348       0.07400306      -0.07831264      -0.00000000      -0.02779560
X       11.50511993      11.84002896      11.30612535      -0.55093379      -0.47704221       0.09141220       0.67863576       1.00000000       2.00000000       1.00000000      -0.10653946      -0.14127348      -0.07400306       0.07470973       0.00000000      -0.04170112
2
Lattice="20.0 0.0 0.0 0.0 20.0 0.0 0.0 0.0 20.0" Properties=species:S:1:pos:R:3:quaternions:R:4:c_diameter\[1\]:R:1:c_diameter\[2\]:R:1:c_diameter\[3\]:R:1:forces:R:3:torques:R:3 energy=-0.20317046963347096 pbc="F F F"
X       10.00000000      10.00000000      10.00000000       0.81458895      -0.51498629      -0.21402285       0.15946217       1.00000000       2.00000000       1.00000000       0.52121320       0.15927501       0.28362172       0.06063335       0.00000000       0.19746267
X       11.73840326      11.15894937      11.65590149       0.09604648       0.46445104      -0.29964501       0.82781228       1.00000000       2.00000000       1.00000000      -0.52121320      -0.15927501      -0.28362172       0.36729082      -0.00000000       0.05393757
2
Lattice="20.0 0.0 0.0 0.0 20.0 0.0 0.0 0.0 20.0" Properties=species:S:1:pos:R:3:quaternions:R:4:c_diameter\[1\]:R:1:c_diameter\[2\]:R:1:c_diameter\[3\]:R:1:forces:R:3:torques:R:3 energy=-0.061326034623477924 pbc="F F F"
X       10.00000000      10.00000000      10.00000000      -0.38280064       0.06831530      -0.52042938       0.76023020       1.00000000       2.00000000       1.00000000       0.03587994       0.13860651       0.05052233      -0.08295445       0.00000000      -0.01822584
X       11.14645142      11.95287701      11.24102821       0.64934518       0.36804824      -0.41960979      -0.51654521       1.00000000       2.00000000       1.00000000      -0.03587994      -0.13860651      -0.05052233       0.05183562       0.00000000       0.02370711
2
Lattice="20.0 0.0 0.0 0.0 20.0 0.0 0.0 0.0 20.0" Properties=species:S:1:pos:R:3:quaternions:R:4:c_diameter\[1\]:R:1:c_diameter\[2\]:R:1:c_diameter\[3\]:R:1:forces:R:3:torques:R:3 energy=-0.04163660396460166 pbc="F F F"
X       10.00000000      10.00000000      10.00000000       0.67925196       0.57943444       0.44537645      -0.06717378       1.00000000       2.00000000       1.00000000       0.05029502       0.04967672       0.05676679       0.00097485       0.00000000      -0.00450489
X       11.80481773      11.54553485      11.69258017       0.86782171      -0.17398411       0.09505235       0.45560955       1.00000000       2.00000000       1.00000000      -0.05029502      -0.04967672      -0.05676679      -0.02025735      -0.00000000      -0.01311928
2
Lattice="20.0 0.0 0.0 0.0 20.0 0.0 0.0 0.0 20.0" Properties=species:S:1:pos:R:3:quaternions:R:4:c_diameter\[1\]:R:1:c_diameter\[2\]:R:1:c_diameter\[3\]:R:1:forces:R:3:torques:R:3 energy=-0.061690864889681084 pbc="F F F"
X       10.00000000      10.00000000      10.00000000       0.12667640       0.31942686       0.93038245       0.12770307       1.00000000       2.00000000       1.00000000       0.11103702       0.05856900       0.09511265       0.08214074       0.00000000      -0.00879478
X       11.85342011      11.42630713      11.26263494       0.90346375      -0.16086517      -0.12351997      -0.37764861       1.00000000       2.00000000       1.00000000      -0.11103702      -0.05856900      -0.09511265      -0.00679898       0.00000000       0.01559140
2
Lattice="20.0 0.0 0.0 0.0 20.0 0.0 0.0 0.0 20.0" Properties=species:S:1:pos:R:3:quaternions:R:4:c_diameter\[1\]:R:1:c_diameter\[2\]:R:1:c_diameter\[3\]:R:1:forces:R:3:torques:R:3 energy=-0.04692915499734097 pbc="F F F"
X       10.00000000      10.00000000      10.00000000      -0.34856122       0.28532839       0.86519179       0.22030875       1.00000000       2.00000000       1.00000000       0.05463335       0.05733356       0.06735497      -0.01697623      -0.00000000      -0.01716834
X       11.34245902      11.93506426      11.72067600       0.94887216       0.30715596      -0.01177270       0.07182085       1.00000000       2.00000000       1.00000000      -0.05463335      -0.05733356      -0.06735497      -0.03041225       0.00000000       0.01141333
2
Lattice="20.0 0.0 0.0 0.0 20.0 0.0 0.0 0.0 20.0" Properties=species:S:1:pos:R:3:quaternions:R:4:c_diameter\[1\]:R:1:c_diameter\[2\]:R:1:c_diameter\[3\]:R:1:forces:R:3:torques:R:3 energy=-0.03793264615429188 pbc="F F F"
X       10.00000000      10.00000000      10.00000000       0.03178337      -0.04135190       0.83409550      -0.54914893       1.00000000       2.00000000       1.00000000       0.05107398       0.05730693       0.04317884      -0.02414742      -0.00000000       0.02260953
X       11.67125276      11.22350366      11.39331347       0.49222101       0.55222216       0.30012204       0.60224242       1.00000000       2.00000000       1.00000000      -0.05107398      -0.05730693      -0.04317884      -0.02644140      -0.00000000       0.01551394
2
Lattice="20.0 0.0 0.0 0.0 20.0 0.0 0.0 0.0 20.0" Properties=species:S:1:pos:R:3:quaternions:R:4:c_diameter\[1\]:R:1:c_diameter\[2\]:R:1:c_diameter\[3\]:R:1:forces:R:3:torques:R:3 energy=-0.04837187108138942 pbc="F F F"
X       10.00000000      10.00000000      10.00000000      -0.41777442       0.61711733       0.30160422      -0.59469793       1.00000000       2.00000000       1.00000000       0.04365563       0.04356277       0.09739524       0.03528033       0.00000000      -0.03598471
X       11.55883005      11.07880100      11.80852706      -0.28952496       0.59685861      -0.23621149       0.71002763       1.00000000       2.00000000       1.00000000      -0.04365563      -0.04356277      -0.09739524       0.02717175       0.00000000      -0.06245772
2
Lattice="20.0 0.0 0.0 0.0 20.0 0.0 0.0 0.0 20.0" Properties=species:S:1:pos:R:3:quaternions:R:4:c_diameter\[1\]:R:1:c_diameter\[2\]:R:1:c_diameter\[3\]:R:1:forces:R:3:torques:R:3 energy=-0.32580532457266487 pbc="F F F"
X       10.00000000      10.00000000      10.00000000      -0.10442127       0.10843012      -0.51366088       0.84468432       1.00000000       2.00000000       1.00000000       1.04047047       0.38048651       0.27127842      -0.19220290      -0.00000000       0.61269703
X       11.90301823      11.24266383      11.13244695      -0.25536748       0.25054574      -0.32406663       0.87578257       1.00000000       2.00000000       1.00000000      -1.04047047      -0.38048651      -0.27127842       0.27526563      -0.00000000       0.25911068
2
Lattice="20.0 0.0 0.0 0.0 20.0 0.0 0.0 0.0 20.0" Properties=species:S:1:pos:R:3:quaternions:R:4:c_diameter\[1\]:R:1:c_diameter\[2\]:R:1:c_diameter\[3\]:R:1:forces:R:3:torques:R:3 energy=-0.027541860450044055 pbc="F F F"
X       10.00000000      10.00000000      10.00000000       0.99290380      -0.10568603      -0.05124819       0.01860473       1.00000000       2.00000000       1.00000000       0.02808221       0.02874939       0.03532418      -0.02445838      -0.00000000       0.01783487
X       11.60716652      11.69415459      11.90126522       0.75791644       0.11028995       0.35478720      -0.53621343       1.00000000       2.00000000       1.00000000      -0.02808221      -0.02874939      -0.03532418       0.00097818       0.00000000      -0.02665473
2
Lattice="20.0 0.0 0.0 0.0 20.0 0.0 0.0 0.0 20.0" Properties=species:S:1:pos:R:3:quaternions:R:4:c_diameter\[1\]:R:1:c_diameter\[2\]:R:1:c_diameter\[3\]:R:1:forces:R:3:torques:R:3 energy=-0.047536127092514674 pbc="F F F"
X       10.00000000      10.00000000      10.00000000      -0.02744487      -0.42211168       0.89440035      -0.14531525       1.00000000       2.00000000       1.00000000       0.06466324       0.06293815       0.06938946      -0.01691246      -0.00000000       0.04995017
X       11.94058604      11.03242137      11.23936954      -0.50586623       0.69868576      -0.40739651       0.29994275       1.00000000       2.00000000       1.00000000      -0.06466324      -0.06293815      -0.06938946      -0.02603127      -0.00000000      -0.04896757
2
Lattice="20.0 0.0 0.0 0.0 20.0 0.0 0.0 0.0 20.0" Properties=species:S:1:pos:R:3:quaternions:R:4:c_diameter\[1\]:R:1:c_diameter\[2\]:R:1:c_diameter\[3\]:R:1:forces:R:3:torques:R:3 energy=-0.10613726708330275 pbc="F F F"
X       10.00000000      10.00000000      10.00000000       0.71465880       0.27590825       0.08030658      -0.63772117       1.00000000       2.00000000       1.00000000       0.19055994       0.20506036       0.17304657       0.09493857      -0.00000000      -0.15307981
X       11.51227998      11.09356881      11.57623444       0.64647927      -0.61366836       0.45030765       0.05194916       1.00000000       2.00000000       1.00000000      -0.19055994      -0.20506036      -0.17304657       0.10643045      -0.00000000       0.02644133
2
Lattice="20.0 0.0 0.0 0.0 20.0 0.0 0.0 0.0 20.0" Properties=species:S:1:pos:R:3:quaternions:R:4:c_diameter\[1\]:R:1:c_diameter\[2\]:R:1:c_diameter\[3\]:R:1:forces:R:3:torques:R:3 energy=-0.11068884401548731 pbc="F F F"
X       10.00000000      10.00000000      10.00000000       0.67294748       0.42822210       0.25981174      -0.54430267       1.00000000       2.00000000       1.00000000       0.17019576       0.19596891       0.22657399       0.02979918      -0.00000000      -0.15186017
X       11.30891790      11.19602130      11.68800390      -0.08907195       0.05927894       0.97121246      -0.21283458       1.00000000       2.00000000       1.00000000      -0.17019576      -0.19596891      -0.22657399       0.06858159      -0.00000000      -0.04519446
2
Lattice="20.0 0.0 0.0 0.0 20.0 0.0 0.0 0.0 20.0" Properties=species:S:1:pos:R:3:quaternions:R:4:c_diameter\[1\]:R:1:c_diameter\[2\]:R:1:c_diameter\[3\]:R:1:forces:R:3:torques:R:3 energy=-0.06474807280744135 pbc="F F F"
X       10.00000000      10.00000000      10.00000000       0.41219619      -0.20261471       0.38005741       0.80286857       1.00000000       2.00000000       1.00000000       0.12914095       0.06872264       0.07736733       0.00297986       0.00000000      -0.08733769
X       11.97663252      11.20398996      11.41160452       0.12544674       0.90565050      -0.15769881      -0.37308359       1.00000000       2.00000000       1.00000000      -0.12914095      -0.06872264      -0.07736733      -0.08886630       0.00000000      -0.01504969
2
Lattice="20.0 0.0 0.0 0.0 20.0 0.0 0.0 0.0 20.0" Properties=species:S:1:pos:R:3:quaternions:R:4:c_diameter\[1\]:R:1:c_diameter\[2\]:R:1:c_diameter\[3\]:R:1:forces:R:3:torques:R:3 energy=-0.07915614206690832 pbc="F F F"
X       10.00000000      10.00000000      10.00000000       0.20766150       0.59373032       0.09295205       0.77182960       1.00000000       2.00000000       1.00000000       0.11152732       0.12679222       0.15068412       0.06595354      -0.00000000      -0.04049512
X       11.46049135      11.52337103      11.29915049      -0.63197560      -0.08877182       0.01308391       0.76977609       1.00000000       2.00000000       1.00000000      -0.11152732      -0.12679222      -0.15068412       0.11418055      -0.00000000      -0.04921826
2
Lattice="20.0 0.0 0.0 0.0 20.0 0.0 0.0 0.0 20.0" Properties=species:S:1:pos:R:3:quaternions:R:4:c_diameter\[1\]:R:1:c_diameter\[2\]:R:1:c_diameter\[3\]:R:1:forces:R:3:torques:R:3 energy=-0.06274235738611654 pbc="F F F"
X       10.00000000      10.00000000      10.00000000       0.94245107      -0.22896387       0.20384463      -0.13344995       1.00000000       2.00000000       1.00000000       0.10330446       0.11205892       0.05253017       0.01771743      -0.00000000       0.08734160
X       11.30944937      11.78512339      11.40750947      -0.61628221       0.71465812       0.33075900       0.00764748       1.00000000       2.00000000       1.00000000      -0.10330446      -0.11205892      -0.05253017       0.05748132      -0.00000000       0.07424560
2
Lattice="20.0 0.0 0.0 0.0 20.0 0.0 0.0 0.0 20.0" Properties=species:S:1:pos:R:3:quaternions:R:4:c_diameter\[1\]:R:1:c_diameter\[2\]:R:1:c_diameter\[3\]:R:1:forces:R:3:torques:R:3 energy=-0.029234638594115025 pbc="F F F"
X       10.00000000      10.00000000      10.00000000       0.54347002       0.74486604       0.24330005       0.30103157       1.00000000       2.00000000       1.00000000       0.04502467       0.02227906       0.03669872       0.00784925      -0.00000000      -0.00455431
X       11.63966754      11.24071603      11.49636471      -0.00500446       0.98344691       0.10802813       0.14538588       1.00000000       2.00000000       1.00000000      -0.04502467      -0.02227906      -0.03669872      -0.01276533       0.00000000      -0.01711444
2
Lattice="20.0 0.0 0.0 0.0 20.0 0.0 0.0 0.0 20.0" Properties=species:S:1:pos:R:3:quaternions:R:4:c_diameter\[1\]:R:1:c_diameter\[2\]:R:1:c_diameter\[3\]:R:1:forces:R:3:torques:R:3 energy=-1.1114161559453029 pbc="F F F"
X       10.00000000      10.00000000      10.00000000      -0.55858488      -0.01256829      -0.56116920       0.61066693       1.00000000       2.00000000       1.00000000       2.64720124       4.29749845       2.90467441      -1.68573969      -0.00000000      -1.68415399
X       11.28593684      11.21577306      11.24969905       0.46120228       0.66359729      -0.07376989      -0.58437068       1.00000000       2.00000000       1.00000000      -2.64720124      -4.29749845      -2.90467441       0.75225018      -0.00000000       0.16245935
2
Lattice="20.0 0.0 0.0 0.0 20.0 0.0 0.0 0.0 20.0" Properties=species:S:1:pos:R:3:quaternions:R:4:c_diameter\[1\]:R:1:c_diameter\[2\]:R:1:c_diameter\[3\]:R:1:forces:R:3:torques:R:3 energy=-0.041014314744584314 pbc="F F F"
X       10.00000000      10.00000000      10.00000000       0.78540214       0.25225307       0.01427315      -0.56507357       1.00000000       2.00000000       1.00000000       0.01897247       0.06879180       0.05736819       0.02319645      -0.00000000      -0.03619209
X       11.22680861      11.95506868      11.36191566      -0.22798940       0.88466787      -0.34826444       0.20998922       1.00000000       2.00000000       1.00000000      -0.01897247      -0.06879180      -0.05736819      -0.05028915      -0.00000000      -0.02071266
2
Lattice="20.0 0.0 0.0 0.0 20.0 0.0 0.0 0.0 20.0" Properties=species:S:1:pos:R:3:quaternions:R:4:c_diameter\[1\]:R:1:c_diameter\[2\]:R:1:c_diameter\[3\]:R:1:forces:R:3:torques:R:3 energy=-0.04838768806222169 pbc="F F F"
X       10.00000000      10.00000000      10.00000000      -0.35684244      -0.51375895       0.77628665      -0.07806566       1.00000000       2.00000000       1.00000000       0.07101245       0.08578856       0.05075431       0.01057238      -0.00000000       0.04819273
X       11.38743023      11.42556747      11.38003821      -0.00427429      -0.42479379      -0.58976854       0.68680786       1.00000000       2.00000000       1.00000000      -0.07101245      -0.08578856      -0.05075431      -0.04006829       0.00000000       0.01249413
2
Lattice="20.0 0.0 0.0 0.0 20.0 0.0 0.0 0.0 20.0" Properties=species:S:1:pos:R:3:quaternions:R:4:c_diameter\[1\]:R:1:c_diameter\[2\]:R:1:c_diameter\[3\]:R:1:forces:R:3:torques:R:3 energy=-0.023471509774530497 pbc="F F F"
X       10.00000000      10.00000000      10.00000000       0.32026932       0.24245417       0.01144099       0.91570336       1.00000000       2.00000000       1.00000000       0.02852126       0.03035342       0.01698488       0.00064095      -0.00000000       0.00726416
X       11.78143996      11.62616158      11.26451608       0.17605416       0.36460840       0.44977729       0.79609424       1.00000000       2.00000000       1.00000000      -0.02852126      -0.03035342      -0.01698488      -0.01641604       0.00000000      -0.00691218
2
Lattice="20.0 0.0 0.0 0.0 20.0 0.0 0.0 0.0 20.0" Properties=species:S:1:pos:R:3:quaternions:R:4:c_diameter\[1\]:R:1:c_diameter\[2\]:R:1:c_diameter\[3\]:R:1:forces:R:3:torques:R:3 energy=-0.06965346654478492 pbc="F F F"
X       10.00000000      10.00000000      10.00000000      -0.07122003       0.05850632       0.97164580      -0.21773642       1.00000000       2.00000000       1.00000000       0.12412320       0.09484269       0.12570896       0.04606024      -0.00000000      -0.03438636
X       11.67532698      11.02340298      11.15982412       0.08000871      -0.49527379       0.86223685      -0.06964258       1.00000000       2.00000000       1.00000000      -0.12412320      -0.09484269      -0.12570896      -0.06728257       0.00000000       0.04214604
2
Lattice="20.0 0.0 0.0 0.0 20.0 0.0 0.0 0.0 20.0" Properties=species:S:1:pos:R:3:quaternions:R:4:c_diameter\[1\]:R:1:c_diameter\[2\]:R:1:c_diameter\[3\]:R:1:forces:R:3:torques:R:3 energy=-0.15437375573933143 pbc="F F F"
X       10.00000000      10.00000000      10.00000000       0.17392734       0.88866632      -0.12311309      -0.40603524       1.00000000       2.00000000       1.00000000       0.23688911       0.21604470       0.32999422      -0.24926438      -0.00000000       0.09145806
X       11.52201030      11.36310457      11.77255758      -0.31132806       0.17181579      -0.59441512       0.72126613       1.00000000       2.00000000       1.00000000      -0.23688911      -0.21604470      -0.32999422      -0.19438171      -0.00000000      -0.07261839
2
Lattice="20.0 0.0 0.0 0.0 20.0 0.0 0.0 0.0 20.0" Properties=species:S:1:pos:R:3:quaternions:R:4:c_diameter\[1\]:R:1:c_diameter\[2\]:R:1:c_diameter\[3\]:R:1:forces:R:3:torques:R:3 energy=-0.05156121310374775 pbc="F F F"
X       10.00000000      10.00000000      10.00000000      -0.23481243       0.32685231       0.40951343       0.81873649       1.00000000       2.00000000       1.00000000       0.07638548       0.07829653       0.07727305       0.00101558      -0.00000000       0.01056461
X       11.59152918      11.26426445      11.12385350      -0.19365917      -0.50774097       0.68775964       0.48133347       1.00000000       2.00000000       1.00000000      -0.07638548      -0.07829653      -0.07727305       0.01593668      -0.00000000       0.04597528
2
Lattice="20.0 0.0 0.0 0.0 20.0 0.0 0.0 0.0 20.0" Properties=species:S:1:pos:R:3:quaternions:R:4:c_diameter\[1\]:R:1:c_diameter\[2\]:R:1:c_diameter\[3\]:R:1:forces:R:3:torques:R:3 energy=-0.05281834829252372 pbc="F F F"
X       10.00000000      10.00000000      10.00000000       0.61420552       0.17838011       0.56512499       0.52111981       1.00000000       2.00000000       1.00000000       0.03287895       0.08336441       0.05120499      -0.02849493       0.00000000       0.00722111
X       11.86394060      11.99684432      11.47292051       0.67213938      -0.03157673       0.14590756       0.72521897       1.00000000       2.00000000       1.00000000      -0.03287895      -0.08336441      -0.05120499      -0.03917745      -0.00000000      -0.06303137
2
Lattice="20.0 0.0 0.0 0.0 20.0 0.0 0.0 0.0 20.0" Properties=species:S:1:pos:R:3:quaternions:R:4:c_diameter\[1\]:R:1:c_diameter\[2\]:R:1:c_diameter\[3\]:R:1:forces:R:3:torques:R:3 energy=-0.07479103892818074 pbc="F F F"
X       10.00000000      10.00000000      10.00000000      -0.39330505      -0.58962147       0.60584269       0.36140324       1.00000000       2.00000000       1.00000000       0.08820040       0.13315367       0.15088023       0.03708236      -0.00000000       0.09756466
X       11.32737776      11.23415353      11.35926224      -0.37813013       0.91367396      -0.02559838       0.14684079       1.00000000       2.00000000       1.00000000      -0.08820040      -0.13315367      -0.15088023      -0.00714119      -0.00000000      -0.01393475
2
Lattice="20.0 0.0 0.0 0.0 20.0 0.0 0.0 0.0 20.0" Properties=species:S:1:pos:R:3:quaternions:R:4:c_diameter\[1\]:R:1:c_diameter\[2\]:R:1:c_diameter\[3\]:R:1:forces:R:3:torques:R:3 energy=-0.12032718978234883 pbc="F F F"
X       10.00000000      10.00000000      10.00000000      -0.11104344       0.70117939      -0.66824432       0.22241031       1.00000000       2.00000000       1.00000000       0.06182604       0.27744301       0.20434117      -0.14655181      -0.00000000       0.05519288
X       11.21868924      11.56752054      11.26669174       0.55367086       0.32910508       0.33615707       0.68712215       1.00000000       2.00000000       1.00000000      -0.06182604      -0.27744301      -0.20434117      -0.14232431       0.00000000      -0.01291705
2
Lattice="20.0 0.0 0.0 0.0 20.0 0.0 0.0 0.0 20.0" Properties=species:S:1:pos:R:3:quaternions:R:4:c_diameter\[1\]:R:1:c_diameter\[2\]:R:1:c_diameter\[3\]:R:1:forces:R:3:torques:R:3 energy=-0.016343291085110637 pbc="F F F"
X       10.00000000      10.00000000      10.00000000      -0.38608116       0.86601845      -0.01340976       0.31744851       1.00000000       2.00000000       1.00000000       0.01639850       0.00938587       0.01720086      -0.00607045       0.00000000      -0.00791184
X       11.91945149      11.90792282      11.95864434      -0.43817718       0.21127291       0.86921742       0.08846240       1.00000000       2.00000000       1.00000000      -0.01639850      -0.00938587      -0.01720086      -0.00765125      -0.00000000      -0.01168717
2
Lattice="20.0 0.0 0.0 0.0 20.0 0.0 0.0 0.0 20.0" Properties=species:S:1:pos:R:3:quaternions:R:4:c_diameter\[1\]:R:1:c_diameter\[2\]:R:1:c_diameter\[3\]:R:1:forces:R:3:torques:R:3 energy=-0.028808085098098204 pbc="F F F"
X       10.00000000      10.00000000      10.00000000      -0.11020609      -0.09168936       0.79357551      -0.59134220       1.00000000       2.00000000       1.00000000       0.03458165       0.04254681       0.02720283      -0.01732438       0.00000000       0.01630929
X       11.34367443      11.59943138      11.48203730       0.11019057      -0.51371085       0.83679944       0.15403214       1.00000000       2.00000000       1.00000000      -0.03458165      -0.04254681      -0.02720283       0.00484330       0.00000000      -0.00145566
2
Lattice="20.0 0.0 0.0 0.0 20.0 0.0 0.0 0.0 20.0" Properties=species:S:1:pos:R:3:quaternions:R:4:c_diameter\[1\]:R:1:c_diameter\[2\]:R:1:c_diameter\[3\]:R:1:forces:R:3:torques:R:3 energy=-0.2567572815837565 pbc="F F F"
X       10.00000000      10.00000000      10.00000000      -0.15745874       0.88870223      -0.40603322       0.14336006       1.00000000       2.00000000       1.00000000       0.41411565       0.67019129       0.76986080      -0.56326274      -0.00000000      -0.05005106
X       11.17968989      11.21456498      11.13429809       0.42123683      -0.62232337       0.02426050       0.65930614       1.00000000       2.00000000       1.00000000      -0.41411565      -0.67019129      -0.76986080       0.09517434       0.00000000      -0.20250315
2
Lattice="20.0 0.0 0.0 0.0 20.0 0.0 0.0 0.0 20.0" Properties=species:S:1:pos:R:3:quaternions:R:4:c_diameter\[1\]:R:1:c_diameter\[2\]:R:1:c_diameter\[3\]:R:1:forces:R:3:torques:R:3 energy=-0.07354931533004935 pbc="F F F"
X       10.00000000      10.00000000      10.00000000       0.47740766       0.56376337      -0.41604155      -0.53024732       1.00000000       2.00000000       1.00000000       0.03775328       0.12625859       0.11531878       0.09025027       0.00000000       0.02936224
X       11.43666426      11.79632653      11.30934025       0.21131914       0.62657050      -0.51588370      -0.54462615       1.00000000       2.00000000       1.00000000      -0.03775328      -0.12625859      -0.11531878      -0.00788751       0.00000000       0.09745949
2
Lattice="20.0 0.0 0.0 0.0 20.0 0.0 0.0 0.0 20.0" Properties=species:S:1:pos:R:3:quaternions:R:4:c_diameter\[1\]:R:1:c_diameter\[2\]:R:1:c_diameter\[3\]:R:1:forces:R:3:torques:R:3 energy=-0.03838348875030983 pbc="F F F"
X       10.00000000      10.00000000      10.00000000       0.35986137       0.69210130       0.44206981       0.44279779       1.00000000       2.00000000       1.00000000       0.04987044       0.03969068       0.06318165      -0.00893854       0.00000000       0.03249611
X       11.64051253      11.18510489      11.45494253       0.52153443       0.09186918       0.84148190      -0.10709856       1.00000000       2.00000000       1.00000000      -0.04987044      -0.03969068      -0.06318165       0.02394881      -0.00000000       0.01583091
2
Lattice="20.0 0.0 0.0 0.0 20.0 0.0 0.0 0.0 20.0" Properties=species:S:1:pos:R:3:quaternions:R:4:c_diameter\[1\]:R:1:c_diameter\[2\]:R:1:c_diameter\[3\]:R:1:forces:R:3:torques:R:3 energy=-0.05397965736418979 pbc="F F F"
X       10.00000000      10.00000000      10.00000000      -0.41557912      -0.58070809       0.61373889      -0.33674425       1.00000000       2.00000000       1.00000000       0.10811828       0.07909957       0.03378826       0.05111899      -0.00000000       0.05699241
X       11.78442627      11.27956611      11.15789635       0.10276389       0.85874807       0.33009285      -0.37819314       1.00000000       2.00000000       1.00000000      -0.10811828      -0.07909957      -0.03378826      -0.02991982      -0.00000000      -0.01496644
2
Lattice="20.0 0.0 0.0 0.0 20.0 0.0 0.0 0.0 20.0" Properties=species:S:1:pos:R:3:quaternions:R:4:c_diameter\[1\]:R:1:c_diameter\[2\]:R:1:c_diameter\[3\]:R:1:forces:R:3:torques:R:3 energy=-0.17107048004778533 pbc="F F F"
X       10.00000000      10.00000000      10.00000000       0.64613499      -0.42373246      -0.63479160       0.00004417       1.00000000       2.00000000       1.00000000       0.17597121       0.41763144       0.23489859       0.09009730      -0.00000000      -0.03813191
X       11.18624339      11.77850645      11.62272276       0.08961015       0.17854169       0.69456967       0.69113375       1.00000000       2.00000000       1.00000000      -0.17597121      -0.41763144      -0.23489859      -0.30462975      -0.00000000      -0.04112044
2
Lattice="20.0 0.0 0.0 0.0 20.0 0.0 0.0 0.0 20.0" Properties=species:S:1:pos:R:3:quaternions:R:4:c_diameter\[1\]:R:1:c_diameter\[2\]:R:1:c_diameter\[3\]:R:1:forces:R:3:torques:R:3 energy=-0.027106677844246002 pbc="F F F"
X       10.00000000      10.00000000      10.00000000      -0.03771416       0.81870267       0.28610848       0.49643279       1.00000000       2.00000000       1.00000000       0.03474116       0.03336872       0.02148410       0.00326823       0.00000000       0.00252114
X       11.68715080      11.66821929      11.73107216       0.58494561       0.77653614      -0.22631891       0.06008339       1.00000000       2.00000000       1.00000000      -0.03474116      -0.03336872      -0.02148410       0.02749361      -0.00000000      -0.01614157
2
Lattice="20.0 0.0 0.0 0.0 20.0 0.0 0.0 0.0 20.0" Properties=species:S:1:pos:R:3:quaternions:R:4:c_diameter\[1\]:R:1:c_diameter\[2\]:R:1:c_diameter\[3\]:R:1:forces:R:3:torques:R:3 energy=-0.26551966208677685 pbc="F F F"
X       10.00000000      10.00000000      10.00000000       0.68602620       0.42234425       0.59203757       0.02202066       1.00000000       2.00000000       1.00000000       0.39815405       0.35495564       0.90943113       0.00693684      -0.00000000       0.07537497
X       11.04875777      11.03336999      11.68763751      -0.39792008      -0.33247371      -0.10888514       0.84809485       1.00000000       2.00000000       1.00000000      -0.39815405      -0.35495564      -0.90943113       0.27915768       0.00000000       0.22269662
2
Lattice="20.0 0.0 0.0 0.0 20.0 0.0 0.0 0.0 20.0" Properties=species:S:1:pos:R:3:quaternions:R:4:c_diameter\[1\]:R:1:c_diameter\[2\]:R:1:c_diameter\[3\]:R:1:forces:R:3:torques:R:3 energy=-0.0361415474063073 pbc="F F F"
X       10.00000000      10.00000000      10.00000000       0.58963183       0.59052769       0.51365916      -0.19941319       1.00000000       2.00000000       1.00000000       0.04748767       0.04200199       0.04342212      -0.00433383      -0.00000000      -0.01905350
X       11.28308818      11.93222914      11.68874295       0.19241051       0.82952157       0.05862349      -0.52099468       1.00000000       2.00000000       1.00000000      -0.04748767      -0.04200199      -0.04342212      -0.04486168      -0.00000000       0.00756296
2
Lattice="20.0 0.0 0.0 0.0 20.0 0.0 0.0 0.0 20.0" Properties=species:S:1:pos:R:3:quaternions:R:4:c_diameter\[1\]:R:1:c_diameter\[2\]:R:1:c_diameter\[3\]:R:1:forces:R:3:torques:R:3 energy=-0.02363177072856726 pbc="F F F"
X       10.00000000      10.00000000      10.00000000       0.32594569       0.24605251       0.70478573      -0.58008159       1.00000000       2.00000000       1.00000000       0.02400744       0.03493270       0.01469660      -0.01061828       0.00000000      -0.00743345
X       11.49753455      11.99402875      11.04206842      -0.37560705       0.08700936       0.48929629       0.78226457       1.00000000       2.00000000       1.00000000      -0.02400744      -0.03493270      -0.01469660       0.00457961      -0.00000000      -0.00466841
2
Lattice="20.0 0.0 0.0 0.0 20.0 0.0 0.0 0.0 20.0" Properties=species:S:1:pos:R:3:quaternions:R:4:c_diameter\[1\]:R:1:c_diameter\[2\]:R:1:c_diameter\[3\]:R:1:forces:R:3:torques:R:3 energy=-0.056394813747195086 pbc="F F F"
X       10.00000000      10.00000000      10.00000000       0.88712719       0.25655710      -0.22061475       0.31386770       1.00000000       2.00000000       1.00000000       0.06265994       0.06302118       0.09868287      -0.06171071      -0.00000000       0.01110952
X       11.59852754      11.58296230      11.17063061       0.70301594       0.02734605      -0.48769067       0.51689321       1.00000000       2.00000000       1.00000000      -0.06265994      -0.06302118      -0.09868287      -0.01306622      -0.00000000      -0.06327288
2
Lattice="20.0 0.0 0.0 0.0 20.0 0.0 0.0 0.0 20.0" Properties=species:S:1:pos:R:3:quaternions:R:4:c_diameter\[1\]:R:1:c_diameter\[2\]:R:1:c_diameter\[3\]:R:1:forces:R:3:torques:R:3 energy=-0.018840948764518823 pbc="F F F"
X       10.00000000      10.00000000      10.00000000      -0.33020842       0.22908628       0.06892506       0.91308883       1.00000000       2.00000000       1.00000000       0.02051728       0.01453257       0.02025310       0.02008612      -0.00000000      -0.00415432
X       11.68695384      11.94845541      11.78956991       0.82032441      -0.48181844       0.30511688      -0.04269129       1.00000000       2.00000000       1.00000000      -0.02051728      -0.01453257      -0.02025310       0.01140278      -0.00000000       0.01568107
2
Lattice="20.0 0.0 0.0 0.0 20.0 0.0 0.0 0.0 20.0" Properties=species:S:1:pos:R:3:quaternions:R:4:c_diameter\[1\]:R:1:c_diameter\[2\]:R:1:c_diameter\[3\]:R:1:forces:R:3:torques:R:3 energy=-0.26429994454949174 pbc="F F F"
X       10.00000000      10.00000000      10.00000000       0.83091970      -0.05101868       0.44151172       0.33471921       1.00000000       2.00000000       1.00000000       0.69382472       0.54349436       0.32565424       0.14353874       0.00000000       0.25631208
X       11.58172631      11.47155309      11.27867828       0.32149568      -0.09813202       0.64632165       0.68503938       1.00000000       2.00000000       1.00000000      -0.69382472      -0.54349436      -0.32565424      -0.11513955      -0.00000000      -0.49391572
2
Lattice="20.0 0.0 0.0 0.0 20.0 0.0 0.0 0.0 20.0" Properties=species:S:1:pos:R:3:quaternions:R:4:c_diameter\[1\]:R:1:c_diameter\[2\]:R:1:c_diameter\[3\]:R:1:forces:R:3:torques:R:3 energy=-0.061562004951445974 pbc="F F F"
X       10.00000000      10.00000000      10.00000000       0.03776885       0.53856491       0.84142105      -0.02306438       1.00000000       2.00000000       1.00000000       0.05305853       0.08947122       0.12564083       0.06768836       0.00000000       0.04791340
X       11.17172348      11.29648996      11.70066519       0.80786145       0.53577640       0.20013960       0.14229432       1.00000000       2.00000000       1.00000000      -0.05305853      -0.08947122      -0.12564083       0.02394863      -0.00000000      -0.00447757
2
Lattice="20.0 0.0 0.0 0.0 20.0 0.0 0.0 0.0 20.0" Properties=species:S:1:pos:R:3:quaternions:R:4:c_diameter\[1\]:R:1:c_diameter\[2\]:R:1:c_diameter\[3\]:R:1:forces:R:3:torques:R:3 energy=-0.033392913707344145 pbc="F F F"
X       10.00000000      10.00000000      10.00000000       0.79930692       0.09510704      -0.34286388       0.48425969       1.00000000       2.00000000       1.00000000       0.05321498       0.01833577       0.04594060      -0.03106227      -0.00000000      -0.01723418
X       11.94724196      11.15736511      11.32235109       0.43219728      -0.17642631       0.88102611       0.07663067       1.00000000       2.00000000       1.00000000      -0.05321498      -0.01833577      -0.04594060       0.02697708      -0.00000000      -0.00810088
2
Lattice="20.0 0.0 0.0 0.0 20.0 0.0 0.0 0.0 20.0" Properties=species:S:1:pos:R:3:quaternions:R:4:c_diameter\[1\]:R:1:c_diameter\[2\]:R:1:c_diameter\[3\]:R:1:forces:R:3:torques:R:3 energy=-0.08410561361101133 pbc="F F F"
X       10.00000000      10.00000000      10.00000000      -0.43844308       0.42744607      -0.42751605       0.66504703       1.00000000       2.00000000       1.00000000       0.06284586       0.18369906       0.14517080      -0.10303270       0.00000000      -0.08947795
X       11.18293814      11.81570303      11.06758999      -0.19248343       0.15329407       0.31267100       0.91743550       1.00000000       2.00000000       1.00000000      -0.06284586      -0.18369906      -0.14517080       0.08968702       0.00000000       0.00525381
2
Lattice="20.0 0.0 0.0 0.0 20.0 0.0 0.0 0.0 20.0" Properties=species:S:1:pos:R:3:quaternions:R:4:c_diameter\[1\]:R:1:c_diameter\[2\]:R:1:c_diameter\[3\]:R:1:forces:R:3:torques:R:3 energy=-0.28599274692910065 pbc="F F F"
X       10.00000000      10.00000000      10.00000000      -0.55798442       0.01368982       0.19708027       0.80599339       1.00000000       2.00000000       1.00000000       0.68060280       0.51405353       0.91448661       0.50103063       0.00000000      -0.08615631
X       11.22455891      11.19415288      11.04375600       0.84576061      -0.00457756       0.53287614      -0.02666571       1.00000000       2.00000000       1.00000000      -0.68060280      -0.51405353      -0.91448661       0.17370161      -0.00000000       0.47786035
2
Lattice="20.0 0.0 0.0 0.0 20.0 0.0 0.0 0.0 20.0" Properties=species:S:1:pos:R:3:quaternions:R:4:c_diameter\[1\]:R:1:c_diameter\[2\]:R:1:c_diameter\[3\]:R:1:forces:R:3:torques:R:3 energy=-0.06667715119150419 pbc="F F F"
X       10.00000000      10.00000000      10.00000000       0.59145471      -0.34172436       0.55247603      -0.47767774       1.00000000       2.00000000       1.00000000       0.10401674       0.12699340       0.03762206      -0.07067701      -0.00000000      -0.03393193
X       11.78220777      11.79425115      11.06882451       0.87787076      -0.30129793       0.24252483       0.28239015       1.00000000       2.00000000       1.00000000      -0.10401674      -0.12699340      -0.03762206       0.08528200      -0.00000000       0.01739919
2
Lattice="20.0 0.0 0.0 0.0 20.0 0.0 0.0 0.0 20.0" Properties=species:S:1:pos:R:3:quaternions:R:4:c_diameter\[1\]:R:1:c_diameter\[2\]:R:1:c_diameter\[3\]:R:1:forces:R:3:torques:R:3 energy=-0.05080206764441668 pbc="F F F"
X       10.00000000      10.00000000      10.00000000      -0.48146580       0.16967821       0.68092505       0.52511052       1.00000000       2.00000000       1.00000000       0.09724408       0.06290996       0.04422932      -0.05642844       0.00000000      -0.00897829
X       11.62738117      11.34891705      11.27017400       0.06047586      -0.49994605       0.75741242       0.41559961       1.00000000       2.00000000       1.00000000      -0.09724408      -0.06290996      -0.04422932       0.00290996       0.00000000      -0.00457802
2
Lattice="20.0 0.0 0.0 0.0 20.0 0.0 0.0 0.0 20.0" Properties=species:S:1:pos:R:3:quaternions:R:4:c_diameter\[1\]:R:1:c_diameter\[2\]:R:1:c_diameter\[3\]:R:1:forces:R:3:torques:R:3 energy=-0.03656184773695586 pbc="F F F"
X       10.00000000      10.00000000      10.00000000       0.10413620       0.47863128       0.60072470       0.63182085       1.00000000       2.00000000       1.00000000       0.04292633       0.03956061       0.05298500      -0.03058024       0.00000000       0.02693492
X       11.74144377      11.13250799      11.90279285      -0.09054943       0.96505790       0.05161545       0.24041611       1.00000000       2.00000000       1.00000000      -0.04292633      -0.03956061      -0.05298500      -0.00883441       0.00000000      -0.01301478
2
Lattice="20.0 0.0 0.0 0.0 20.0 0.0 0.0 0.0 20.0" Properties=species:S:1:pos:R:3:quaternions:R:4:c_diameter\[1\]:R:1:c_diameter\[2\]:R:1:c_diameter\[3\]:R:1:forces:R:3:torques:R:3 energy=-0.042147877729073774 pbc="F F F"
X       10.00000000      10.00000000      10.00000000       0.27276813      -0.38223412       0.68541003      -0.55651390       1.00000000       2.00000000       1.00000000       0.05183940       0.06001423       0.04706946      -0.04537954      -0.00000000      -0.01158040
X       11.93286879      11.25602666      11.57780687      -0.64775821      -0.30485132       0.67282667      -0.18649194       1.00000000       2.00000000       1.00000000      -0.05183940      -0.06001423      -0.04706946       0.02137927       0.00000000       0.01020057
2
Lattice="20.0 0.0 0.0 0.0 20.0 0.0 0.0 0.0 20.0" Properties=species:S:1:pos:R:3:quaternions:R:4:c_diameter\[1\]:R:1:c_diameter\[2\]:R:1:c_diameter\[3\]:R:1:forces:R:3:torques:R:3 energy=-0.16107826818402793 pbc="F F F"
X       10.00000000      10.00000000      10.00000000      -0.42359680       0.35825214       0.77272644      -0.30840720       1.00000000       2.00000000       1.00000000       0.21971157       0.27827333       0.46343700       0.22828162      -0.00000000      -0.17077854
X       11.11538883      11.28751748      11.26863561       0.97504070       0.21417094       0.03993720      -0.04279568       1.00000000       2.00000000       1.00000000      -0.21971157      -0.27827333      -0.46343700      -0.07203518      -0.00000000       0.11037584
2
Lattice="20.0 0.0 0.0 0.0 20.0 0.0 0.0 0.0 20.0" Properties=species:S:1:pos:R:3:quaternions:R:4:c_diameter\[1\]:R:1:c_diameter\[2\]:R:1:c_diameter\[3\]:R:1:forces:R:3:torques:R:3 energy=-0.024340767385096444 pbc="F F F"
X       10.00000000      10.00000000      10.00000000       0.66145013       0.68690497       0.23587373       0.18710656       1.00000000       2.00000000       1.00000000       0.02602261       0.02478667       0.02896364       0.00247197       0.00000000       0.00671061
X       11.98214050      11.31743063      11.40709671       0.63823093       0.05016427      -0.20902309       0.73922539       1.00000000       2.00000000       1.00000000      -0.02602261      -0.02478667      -0.02896364      -0.00943030       0.00000000      -0.01944199
2
Lattice="20.0 0.0 0.0 0.0 20.0 0.0 0.0 0.0 20.0" Properties=species:S:1:pos:R:3:quaternions:R:4:c_diameter\[1\]:R:1:c_diameter\[2\]:R:1:c_diameter\[3\]:R:1:forces:R:3:torques:R:3 energy=-0.07247401352981381 pbc="F F F"
X       10.00000000      10.00000000      10.00000000      -0.09658774      -0.33243057       0.61870099       0.70524450       1.00000000       2.00000000       1.00000000       0.08951622       0.11370245       0.11960954      -0.01564715      -0.00000000      -0.03461730
X       11.19569200      11.61297894      11.85406066      -0.00842615       0.49598195      -0.44464002       0.74580571       1.00000000       2.00000000       1.00000000      -0.08951622      -0.11370245      -0.11960954       0.00064217      -0.00000000      -0.00769378
2
Lattice="20.0 0.0 0.0 0.0 20.0 0.0 0.0 0.0 20.0" Properties=species:S:1:pos:R:3:quaternions:R:4:c_diameter\[1\]:R:1:c_diameter\[2\]:R:1:c_diameter\[3\]:R:1:forces:R:3:torques:R:3 energy=-0.046381487953148844 pbc="F F F"
X       10.00000000      10.00000000      10.00000000       0.19403573       0.67213295      -0.26974555      -0.66168328       1.00000000       2.00000000       1.00000000       0.05879786       0.01346229       0.07059228      -0.00808321      -0.00000000       0.06565702
X       11.84644984      11.36193877      11.95671089      -0.18412886      -0.19336851      -0.23847872       0.93372002       1.00000000       2.00000000       1.00000000      -0.05879786      -0.01346229      -0.07059228      -0.00915030      -0.00000000       0.05846135
2
Lattice="20.0 0.0 0.0 0.0 20.0 0.0 0.0 0.0 20.0" Properties=species:S:1:pos:R:3:quaternions:R:4:c_diameter\[1\]:R:1:c_diameter\[2\]:R:1:c_diameter\[3\]:R:1:forces:R:3:torques:R:3 energy=-0.11064656343374675 pbc="F F F"
X       10.00000000      10.00000000      10.00000000      -0.09771711      -0.58974209       0.43717453       0.67196285       1.00000000       2.00000000       1.00000000       0.17097302       0.09915554       0.22175150      -0.03220605      -0.00000000       0.13759724
X       11.82804738      11.27693827      11.11734537       0.00483260       0.82148180      -0.43087921      -0.37348014       1.00000000       2.00000000       1.00000000      -0.17097302      -0.09915554      -0.22175150      -0.11448814      -0.00000000       0.07118160
2
Lattice="20.0 0.0 0.0 0.0 20.0 0.0 0.0 0.0 20.0" Properties=species:S:1:pos:R:3:quaternions:R:4:c_diameter\[1\]:R:1:c_diameter\[2\]:R:1:c_diameter\[3\]:R:1:forces:R:3:torques:R:3 energy=-0.060005082593190824 pbc="F F F"
X       10.00000000      10.00000000      10.00000000       0.94907999      -0.14709059      -0.27766007       0.02272472       1.00000000       2.00000000       1.00000000       0.08854484       0.04655391       0.07711791      -0.05917155       0.00000000      -0.00210723
X       11.45318261      11.91866278      11.62101324       0.06073440      -0.45686534      -0.20145917       0.86429139       1.00000000       2.00000000       1.00000000      -0.08854484      -0.04655391      -0.07711791      -0.04841380      -0.00000000       0.06393368
2
Lattice="20.0 0.0 0.0 0.0 20.0 0.0 0.0 0.0 20.0" Properties=species:S:1:pos:R:3:quaternions:R:4:c_diameter\[1\]:R:1:c_diameter\[2\]:R:1:c_diameter\[3\]:R:1:forces:R:3:torques:R:3 energy=-0.027543193365761647 pbc="F F F"
X       10.00000000      10.00000000      10.00000000       0.91917152       0.25985163      -0.01008762      -0.29580245       1.00000000       2.00000000       1.00000000       0.01062093       0.03480080       0.04231701       0.00201517      -0.00000000      -0.00079483
X       11.00230067      11.85997897      11.76679162       0.77933704       0.23770130       0.45089828       0.36444836       1.00000000       2.00000000       1.00000000      -0.01062093      -0.03480080      -0.04231701      -0.02669791       0.00000000       0.01927928
2
Lattice="20.0 0.0 0.0 0.0 20.0 0.0 0.0 0.0 20.0" Properties=species:S:1:pos:R:3:quaternions:R:4:c_diameter\[1\]:R:1:c_diameter\[2\]:R:1:c_diameter\[3\]:R:1:forces:R:3:torques:R:3 energy=-0.046193366821075166 pbc="F F F"
X       10.00000000      10.00000000      10.00000000       0.57397366       0.30855755      -0.25812997       0.71324287       1.00000000       2.00000000       1.00000000       0.08550246       0.04169590       0.05852685       0.00963825       0.00000000       0.01757062
X       11.55181011      11.07240391      11.43529704       0.35241751       0.13108065      -0.20547863       0.90354762       1.00000000       2.00000000       1.00000000      -0.08550246      -0.04169590      -0.05852685       0.02687795      -0.00000000       0.01258274
2
Lattice="20.0 0.0 0.0 0.0 20.0 0.0 0.0 0.0 20.0" Properties=species:S:1:pos:R:3:quaternions:R:4:c_diameter\[1\]:R:1:c_diameter\[2\]:R:1:c_diameter\[3\]:R:1:forces:R:3:torques:R:3 energy=-0.1962395275352294 pbc="F F F"
X       10.00000000      10.00000000      10.00000000      -0.43686773       0.81142094       0.23637034       0.30801252       1.00000000       2.00000000       1.00000000       0.49589376       0.53204635       0.24687742       0.07215088      -0.00000000       0.07131119
X       11.00046640      11.42726976      11.07833540       0.50596278       0.73160477      -0.14308250       0.43391649       1.00000000       2.00000000       1.00000000      -0.49589376      -0.53204635      -0.24687742       0.35687307       0.00000000      -0.10677722
2
Lattice="20.0 0.0 0.0 0.0 20.0 0.0 0.0 0.0 20.0" Properties=species:S:1:pos:R:3:quaternions:R:4:c_diameter\[1\]:R:1:c_diameter\[2\]:R:1:c_diameter\[3\]:R:1:forces:R:3:torques:R:3 energy=-0.020004239877517614 pbc="F F F"
X       10.00000000      10.00000000      10.00000000       0.87116595      -0.12350644      -0.20219407      -0.43003907       1.00000000       2.00000000       1.00000000       0.02384831       0.02357621       0.01691682      -0.00313917       0.00000000       0.00687222
X       11.56313388      11.73968243      11.31791528      -0.38374980      -0.29241621       0.82975230      -0.28060645       1.00000000       2.00000000       1.00000000      -0.02384831      -0.02357621      -0.01691682       0.00245025      -0.00000000       0.00193611
2
Lattice="20.0 0.0 0.0 0.0 20.0 0.0 0.0 0.0 20.0" Properties=species:S:1:pos:R:3:quaternions:R:4:c_diameter\[1\]:R:1:c_diameter\[2\]:R:1:c_diameter\[3\]:R:1:forces:R:3:torques:R:3 energy=-0.03413180246865294 pbc="F F F"
X       10.00000000      10.00000000      10.00000000      -0.27117947       0.80959798       0.29652603      -0.42788446       1.00000000       2.00000000       1.00000000       0.04220926       0.05190813       0.03468474       0.00554095       0.00000000       0.00795868
X       11.45791760      11.61998908      11.12897156       0.23543192       0.83377568       0.49785764      -0.03908581       1.00000000       2.00000000       1.00000000      -0.04220926      -0.05190813      -0.03468474       0.00830315       0.00000000       0.00001972
2
Lattice="20.0 0.0 0.0 0.0 20.0 0.0 0.0 0.0 20.0" Properties=species:S:1:pos:R:3:quaternions:R:4:c_diameter\[1\]:R:1:c_diameter\[2\]:R:1:c_diameter\[3\]:R:1:forces:R:3:torques:R:3 energy=-0.09081152209324449 pbc="F F F"
X       10.00000000      10.00000000      10.00000000       0.05757983       0.80589864       0.36776746      -0.46039010       1.00000000       2.00000000       1.00000000       0.16449734       0.14384168       0.18258334      -0.11087080      -0.00000000      -0.00688264
X       11.13558965      11.49624838      11.20134492      -0.20374060       0.86625437      -0.40722608      -0.20557251       1.00000000       2.00000000       1.00000000      -0.16449734      -0.14384168      -0.18258334      -0.10600837       0.00000000       0.02122633
2
Lattice="20.0 0.0 0.0 0.0 20.0 0.0 0.0 0.0 20.0" Properties=species:S:1:pos:R:3:quaternions:R:4:c_diameter\[1\]:R:1:c_diameter\[2\]:R:1:c_diameter\[3\]:R:1:forces:R:3:torques:R:3 energy=-0.04127884897682501 pbc="F F F"
X       10.00000000      10.00000000      10.00000000       0.06384851       0.02205209       0.88068850      -0.46885481       1.00000000       2.00000000       1.00000000       0.02908403       0.05143690       0.07495871      -0.02640558      -0.00000000      -0.00018602
X       11.01647430      11.48668167      11.88654031       0.00363185       0.90087327      -0.28746771      -0.32523295       1.00000000       2.00000000       1.00000000      -0.02908403      -0.05143690      -0.07495871      -0.03333111      -0.00000000       0.03316766
2
Lattice="20.0 0.0 0.0 0.0 20.0 0.0 0.0 0.0 20.0" Properties=species:S:1:pos:R:3:quaternions:R:4:c_diameter\[1\]:R:1:c_diameter\[2\]:R:1:c_diameter\[3\]:R:1:forces:R:3:torques:R:3 energy=-0.03936785421531609 pbc="F F F"
X       10.00000000      10.00000000      10.00000000       0.05831845      -0.27433910       0.89308077       0.35177231       1.00000000       2.00000000       1.00000000       0.05847445       0.03497674       0.05009224       0.01390848      -0.00000000      -0.03897335
X       11.20357048      11.45293905      11.89585079       0.86082062      -0.13712910      -0.10091167      -0.47958347       1.00000000       2.00000000       1.00000000      -0.05847445      -0.03497674      -0.05009224      -0.02060522      -0.00000000       0.01481669
2
Lattice="20.0 0.0 0.0 0.0 20.0 0.0 0.0 0.0 20.0" Properties=species:S:1:pos:R:3:quaternions:R:4:c_diameter\[1\]:R:1:c_diameter\[2\]:R:1:c_diameter\[3\]:R:1:forces:R:3:torques:R:3 energy=-0.03887730341766231 pbc="F F F"
X       10.00000000      10.00000000      10.00000000      -0.18316477       0.90724704      -0.12977928      -0.35568360       1.00000000       2.00000000       1.00000000       0.04575469       0.05217050       0.04107744      -0.04298304       0.00000000       0.00391546
X       11.94368044      11.96095089      11.23775503      -0.22876376       0.56358097       0.78022648       0.14591186       1.00000000       2.00000000       1.00000000      -0.04575469      -0.05217050      -0.04107744       0.00982341      -0.00000000       0.03757934
2
Lattice="20.0 0.0 0.0 0.0 20.0 0.0 0.0 0.0 20.0" Properties=species:S:1:pos:R:3:quaternions:R:4:c_diameter\[1\]:R:1:c_diameter\[2\]:R:1:c_diameter\[3\]:R:1:forces:R:3:torques:R:3 energy=-0.031093686671993664 pbc="F F F"
X       10.00000000      10.00000000      10.00000000      -0.26306543      -0.02459351       0.95683860      -0.12104393       1.00000000       2.00000000       1.00000000       0.03288081       0.01635800       0.04915262       0.00131648      -0.00000000      -0.02112185
X       11.98170589      11.13977969      11.88045795       0.37362397       0.71594379      -0.36806938      -0.46081942       1.00000000       2.00000000       1.00000000      -0.03288081      -0.01635800      -0.04915262       0.00120061      -0.00000000       0.03549707
2
Lattice="20.0 0.0 0.0 0.0 20.0 0.0 0.0 0.0 20.0" Properties=species:S:1:pos:R:3:quaternions:R:4:c_diameter\[1\]:R:1:c_diameter\[2\]:R:1:c_diameter\[3\]:R:1:forces:R:3:torques:R:3 energy=-0.047913297084031206 pbc="F F F"
X       10.00000000      10.00000000      10.00000000       0.23289020       0.03881846      -0.11997520       0.96429313       1.00000000       2.00000000       1.00000000       0.09363711       0.04590074       0.05948455       0.02112457       0.00000000       0.01466176
X       11.73630334      11.04178226      11.13813130       0.79661526      -0.36219994      -0.09632255      -0.47427555       1.00000000       2.00000000       1.00000000      -0.09363711      -0.04590074      -0.05948455       0.01229979      -0.00000000       0.00131251
2
Lattice="20.0 0.0 0.0 0.0 20.0 0.0 0.0 0.0 20.0" Properties=species:S:1:pos:R:3:quaternions:R:4:c_diameter\[1\]:R:1:c_diameter\[2\]:R:1:c_diameter\[3\]:R:1:forces:R:3:torques:R:3 energy=-0.08789259647906529 pbc="F F F"
X       10.00000000      10.00000000      10.00000000       0.76746801       0.37806512       0.15329019       0.49453183       1.00000000       2.00000000       1.00000000       0.10101703       0.11615258       0.21537243      -0.06847625       0.00000000      -0.00494258
X       11.01916286      11.39322882      11.44684779       0.88183783       0.12709833       0.45151005       0.04844314       1.00000000       2.00000000       1.00000000      -0.10101703      -0.11615258      -0.21537243      -0.00349577       0.00000000       0.12592725
2
Lattice="20.0 0.0 0.0 0.0 20.0 0.0 0.0 0.0 20.0" Properties=species:S:1:pos:R:3:quaternions:R:4:c_diameter\[1\]:R:1:c_diameter\[2\]:R:1:c_diameter\[3\]:R:1:forces:R:3:torques:R:3 energy=-0.029804070165970375 pbc="F F F"
X       10.00000000      10.00000000      10.00000000      -0.03870416       0.11337466      -0.05205961       0.99143228       1.00000000       2.00000000       1.00000000       0.04045427       0.01435079       0.03923527       0.03090218      -0.00000000       0.00703485
X       11.67610435      11.47042924      11.72645488       0.47437258      -0.26494881       0.83474260      -0.08931721       1.00000000       2.00000000       1.00000000      -0.04045427      -0.01435079      -0.03923527       0.02172112      -0.00000000      -0.00604701
2
Lattice="20.0 0.0 0.0 0.0 20.0 0.0 0.0 0.0 20.0" Properties=species:S:1:pos:R:3:quaternions:R:4:c_diameter\[1\]:R:1:c_diameter\[2\]:R:1:c_diameter\[3\]:R:1:forces:R:3:torques:R:3 energy=-0.030613145500416303 pbc="F F F"
X       10.00000000      10.00000000      10.00000000       0.92228200       0.23064967      -0.30441779       0.05938398       1.00000000       2.00000000       1.00000000       0.04598792       0.01010595       0.04041776      -0.00607819       0.00000000      -0.00634495
X       11.82338549      11.02210317      11.89246202      -0.19148505      -0.49130215      -0.15160357       0.83604547       1.00000000       2.00000000       1.00000000      -0.04598792      -0.01010595      -0.04041776      -0.02222729      -0.00000000       0.02671470
2
Lattice="20.0 0.0 0.0 0.0 20.0 0.0 0.0 0.0 20.0" Properties=species:S:1:pos:R:3:quaternions:R:4:c_diameter\[1\]:R:1:c_diameter\[2\]:R:1:c_diameter\[3\]:R:1:forces:R:3:torques:R:3 energy=-0.023940908446462208 pbc="F F F"
X       10.00000000      10.00000000      10.00000000       0.41955555      -0.55350631       0.58798216       0.41458519       1.00000000       2.00000000       1.00000000       0.01674066       0.03466536       0.02485203       0.01487916      -0.00000000      -0.01984030
X       11.18871453      11.75555870      11.94649546       0.44683419       0.61012890      -0.59400629      -0.27429630       1.00000000       2.00000000       1.00000000      -0.01674066      -0.03466536      -0.02485203       0.01073919       0.00000000       0.02011991
2
Lattice="20.0 0.0 0.0 0.0 20.0 0.0 0.0 0.0 20.0" Properties=species:S:1:pos:R:3:quaternions:R:4:c_diameter\[1\]:R:1:c_diameter\[2\]:R:1:c_diameter\[3\]:R:1:forces:R:3:torques:R:3 energy=-0.04384861972987162 pbc="F F F"
X       10.00000000      10.00000000      10.00000000       0.67157411       0.72011570      -0.10655810      -0.13808316       1.00000000       2.00000000       1.00000000       0.04971820       0.07353360       0.02799284       0.03722777       0.00000000      -0.04869096
X       11.89327810      11.63292311      11.37957273       0.30926690      -0.50595483       0.69336530      -0.40939987       1.00000000       2.00000000       1.00000000      -0.04971820      -0.07353360      -0.02799284      -0.06050975      -0.00000000      -0.00549744
2
Lattice="20.0 0.0 0.0 0.0 20.0 0.0 0.0 0.0 20.0" Properties=species:S:1:pos:R:3:quaternions:R:4:c_diameter\[1\]:R:1:c_diameter\[2\]:R:1:c_diameter\[3\]:R:1:forces:R:3:torques:R:3 energy=-0.09689430162684814 pbc="F F F"
X       10.00000000      10.00000000      10.00000000       0.70461337      -0.46444249      -0.31409942       0.43491921       1.00000000       2.00000000       1.00000000       0.17932712       0.17924997       0.12900437       0.09010144      -0.00000000      -0.07791604
X       11.72998216      11.55170186      11.05288901      -0.02739821       0.98514627       0.16524473       0.03781986       1.00000000       2.00000000       1.00000000      -0.17932712      -0.17924997      -0.12900437      -0.04279995       0.00000000      -0.07939874
2
Lattice="20.0 0.0 0.0 0.0 20.0 0.0 0.0 0.0 20.0" Properties=species:S:1:pos:R:3:quaternions:R:4:c_diameter\[1\]:R:1:c_diameter\[2\]:R:1:c_diameter\[3\]:R:1:forces:R:3:torques:R:3 energy=-0.8680351436580656 pbc="F F F"
X       10.00000000      10.00000000      10.00000000       0.71598094      -0.41545266      -0.14200056       0.54277641       1.00000000       2.00000000       1.00000000       0.88425382       3.89087120       1.78649473       0.59825459       0.00000000      -1.67074916
X       11.00275942      11.33282276      11.06275050       0.67957898      -0.56738392      -0.13628402       0.44460607       1.00000000       2.00000000       1.00000000      -0.88425382      -3.89087120      -1.78649473       1.53303097      -0.00000000      -0.77091500
2
Lattice="20.0 0.0 0.0 0.0 20.0 0.0 0.0 0.0 20.0" Properties=species:S:1:pos:R:3:quaternions:R:4:c_diameter\[1\]:R:1:c_diameter\[2\]:R:1:c_diameter\[3\]:R:1:forces:R:3:torques:R:3 energy=-0.08798293736179372 pbc="F F F"
X       10.00000000      10.00000000      10.00000000       0.42245187       0.60448285      -0.40694758      -0.53900702       1.00000000       2.00000000       1.00000000       0.07816460       0.19607652       0.14613209       0.07291926      -0.00000000       0.11547503
X       11.25417405      11.69719822      11.11611130      -0.42310192      -0.43843026       0.78730958       0.09437846       1.00000000       2.00000000       1.00000000      -0.07816460      -0.19607652      -0.14613209       0.03178275      -0.00000000       0.01440636
2
Lattice="20.0 0.0 0.0 0.0 20.0 0.0 0.0 0.0 20.0" Properties=species:S:1:pos:R:3:quaternions:R:4:c_diameter\[1\]:R:1:c_diameter\[2\]:R:1:c_diameter\[3\]:R:1:forces:R:3:torques:R:3 energy=-0.01873365190963711 pbc="F F F"
X       10.00000000      10.00000000      10.00000000      -0.48194915      -0.55551228       0.58027580      -0.34987301       1.00000000       2.00000000       1.00000000       0.01989517       0.02244086       0.01247242       0.00798016       0.00000000       0.01855654
X       11.57630105      11.82256098      11.77555436       0.02188170      -0.38663866       0.86507105       0.31887899       1.00000000       2.00000000       1.00000000      -0.01989517      -0.02244086      -0.01247242       0.00615060      -0.00000000      -0.01125130
2
Lattice="20.0 0.0 0.0 0.0 20.0 0.0 0.0 0.0 20.0" Properties=species:S:1:pos:R:3:quaternions:R:4:c_diameter\[1\]:R:1:c_diameter\[2\]:R:1:c_diameter\[3\]:R:1:forces:R:3:torques:R:3 energy=-0.12189644789058533 pbc="F F F"
X       10.00000000      10.00000000      10.00000000       0.86922684       0.17811666       0.46059720       0.02386181       1.00000000       2.00000000       1.00000000       0.16580692       0.21269547       0.23947950       0.01584029      -0.00000000       0.19886391
X       11.54639891      11.74313009      11.01939393      -0.42619619       0.49213239      -0.33708092       0.68010218       1.00000000       2.00000000       1.00000000      -0.16580692      -0.21269547      -0.23947950      -0.10434930       0.00000000      -0.18181776
2
Lattice="20.0 0.0 0.0 0.0 20.0 0.0 0.0 0.0 20.0" Properties=species:S:1:pos:R:3:quaternions:R:4:c_diameter\[1\]:R:1:c_diameter\[2\]:R:1:c_diameter\[3\]:R:1:forces:R:3:torques:R:3 energy=-0.014133351018523609 pbc="F F F"
X       10.00000000      10.00000000      10.00000000       0.25368998       0.41021277       0.86933589      -0.10780529       1.00000000       2.00000000       1.00000000       0.01404804       0.00919414       0.01516161       0.01192410      -0.00000000       0.00351470
X       11.82323883      11.75927718      11.81186078       0.39657510      -0.38462919       0.82004999       0.14935391       1.00000000       2.00000000       1.00000000      -0.01404804      -0.00919414      -0.01516161       0.00960032      -0.00000000      -0.00252457
2
Lattice="20.0 0.0 0.0 0.0 20.0 0.0 0.0 0.0 20.0" Properties=species:S:1:pos:R:3:quaternions:R:4:c_diameter\[1\]:R:1:c_diameter\[2\]:R:1:c_diameter\[3\]:R:1:forces:R:3:torques:R:3 energy=-0.0725898754550824 pbc="F F F"
X       10.00000000      10.00000000      10.00000000       0.00685327       0.14668706       0.43566561       0.88804922       1.00000000       2.00000000       1.00000000       0.16515286       0.11590988       0.06721037      -0.02314296      -0.00000000      -0.00112518
X       11.48378841      11.28427521      11.04516724       0.09445788      -0.14979817      -0.49513983       0.85057320       1.00000000       2.00000000       1.00000000      -0.16515286      -0.11590988      -0.06721037      -0.02777230      -0.00000000       0.08071838
2
Lattice="20.0 0.0 0.0 0.0 20.0 0.0 0.0 0.0 20.0" Properties=species:S:1:pos:R:3:quaternions:R:4:c_diameter\[1\]:R:1:c_diameter\[2\]:R:1:c_diameter\[3\]:R:1:forces:R:3:torques:R:3 energy=-0.47645047783023037 pbc="F F F"
X       10.00000000      10.00000000      10.00000000       0.50445497       0.76072408      -0.29125910       0.28634277       1.00000000       2.00000000       1.00000000       1.55431474       1.22781020       0.57370524       0.89894342      -0.00000000       0.04688699
X       11.19705176      11.20771556      11.25138877      -0.14605051      -0.06700540       0.80258148       0.57449325       1.00000000       2.00000000       1.00000000      -1.55431474      -1.22781020      -0.57370524      -0.32869835      -0.00000000      -0.65211262
2
Lattice="20.0 0.0 0.0 0.0 20.0 0.0 0.0 0.0 20.0" Properties=species:S:1:pos:R:3:quaternions:R:4:c_diameter\[1\]:R:1:c_diameter\[2\]:R:1:c_diameter\[3\]:R:1:forces:R:3:torques:R:3 energy=-0.016013720127552634 pbc="F F F"
X       10.00000000      10.00000000      10.00000000       0.34655191      -0.22178589      -0.18462464       0.89253937       1.00000000       2.00000000       1.00000000       0.01542303       0.01134990       0.01964946      -0.00123770      -0.00000000       0.00384645
X       11.62624344      11.55935930      11.78687345       0.19151328       0.23824388       0.93381506      -0.18588155       1.00000000       2.00000000       1.00000000      -0.01542303      -0.01134990      -0.01964946       0.01165110       0.00000000       0.00159560
2
Lattice="20.0 0.0 0.0 0.0 20.0 0.0 0.0 0.0 20.0" Properties=species:S:1:pos:R:3:quaternions:R:4:c_diameter\[1\]:R:1:c_diameter\[2\]:R:1:c_diameter\[3\]:R:1:forces:R:3:torques:R:3 energy=-0.02387757377156182 pbc="F F F"
X       10.00000000      10.00000000      10.00000000       0.49240091       0.84324689       0.21475454      -0.01888166       1.00000000       2.00000000       1.00000000       0.03682093       0.01372249       0.02411877       0.00145731       0.00000000      -0.02290449
X       11.80309967      11.24326200      11.66726830       0.96860485       0.06727190       0.23213085      -0.05826150       1.00000000       2.00000000       1.00000000      -0.03682093      -0.01372249      -0.02411877      -0.00833664       0.00000000       0.01446306
2
Lattice="20.0 0.0 0.0 0.0 20.0 0.0 0.0 0.0 20.0" Properties=species:S:1:pos:R:3:quaternions:R:4:c_diameter\[1\]:R:1:c_diameter\[2\]:R:1:c_diameter\[3\]:R:1:forces:R:3:torques:R:3 energy=-0.09273859681016453 pbc="F F F"
X       10.00000000      10.00000000      10.00000000       0.20139303      -0.50892289       0.32580359       0.77090230       1.00000000       2.00000000       1.00000000       0.19625940       0.15079165       0.15417708       0.00916053      -0.00000000       0.02624508
X       11.11569215      11.46061330      11.21675296       0.94570326      -0.19932429      -0.11801791      -0.22800647       1.00000000       2.00000000       1.00000000      -0.19625940      -0.15079165      -0.15417708      -0.06059274      -0.00000000       0.12338404
2
Lattice="20.0 0.0 0.0 0.0 20.0 0.0 0.0 0.0 20.0" Properties=species:S:1:pos:R:3:quaternions:R:4:c_diameter\[1\]:R:1:c_diameter\[2\]:R:1:c_diameter\[3\]:R:1:forces:R:3:torques:R:3 energy=-0.09468989732617655 pbc="F F F"
X       10.00000000      10.00000000      10.00000000       0.32971991       0.59475879       0.01642484       0.73299180       1.00000000       2.00000000       1.00000000       0.18895639       0.17148930       0.14647984       0.08593103      -0.00000000       0.00472529
X       11.42005274      11.08837633      11.46144292       0.53417879      -0.41461702       0.13851505       0.72357400       1.00000000       2.00000000       1.00000000      -0.18895639      -0.17148930      -0.14647984       0.06986585      -0.00000000      -0.13368174
2
Lattice="20.0 0.0 0.0 0.0 20.0 0.0 0.0 0.0 20.0" Properties=species:S:1:pos:R:3:quaternions:R:4:c_diameter\[1\]:R:1:c_diameter\[2\]:R:1:c_diameter\[3\]:R:1:forces:R:3:torques:R:3 energy=-0.0634511576845402 pbc="F F F"
X       10.00000000      10.00000000      10.00000000       0.35064103       0.85503927      -0.08275042       0.37297598       1.00000000       2.00000000       1.00000000       0.11892507       0.05505473       0.05125849       0.07190123      -0.00000000      -0.02953271
X       11.63958948      11.75029486      11.35597919      -0.01197817      -0.10673121       0.98051928       0.16445947       1.00000000       2.00000000       1.00000000      -0.11892507      -0.05505473      -0.05125849       0.04698979      -0.00000000      -0.06796038
2
Lattice="20.0 0.0 0.0 0.0 20.0 0.0 0.0 0.0 20.0" Properties=species:S:1:pos:R:3:quaternions:R:4:c_diameter\[1\]:R:1:c_diameter\[2\]:R:1:c_diameter\[3\]:R:1:forces:R:3:torques:R:3 energy=-0.03080420833035123 pbc="F F F"
X       10.00000000      10.00000000      10.00000000       0.32378348       0.83034023       0.44619137       0.08131806       1.00000000       2.00000000       1.00000000       0.04291065       0.03587710       0.02416592      -0.00776568       0.00000000      -0.01849470
X       11.36111249      11.83076330      11.62072046      -0.10245338      -0.49172060      -0.49826085       0.70671796       1.00000000       2.00000000       1.00000000      -0.04291065      -0.03587710      -0.02416592      -0.03147083      -0.00000000      -0.00005219
2
Lattice="20.0 0.0 0.0 0.0 20.0 0.0 0.0 0.0 20.0" Properties=species:S:1:pos:R:3:quaternions:R:4:c_diameter\[1\]:R:1:c_diameter\[2\]:R:1:c_diameter\[3\]:R:1:forces:R:3:torques:R:3 energy=-0.02712759534030513 pbc="F F F"
X       10.00000000      10.00000000      10.00000000       0.04872967       0.94356111      -0.24349977      -0.21914769       1.00000000       2.00000000       1.00000000       0.03640955       0.00751625       0.03825140      -0.03165765       0.00000000       0.00348647
X       11.76682292      11.08800455      11.89234618       0.65514972      -0.42494465       0.62358963       0.03656315       1.00000000       2.00000000       1.00000000      -0.03640955      -0.00751625      -0.03825140       0.02130330      -0.00000000       0.00697561
2
Lattice="20.0 0.0 0.0 0.0 20.0 0.0 0.0 0.0 20.0" Properties=species:S:1:pos:R:3:quaternions:R:4:c_diameter\[1\]:R:1:c_diameter\[2\]:R:1:c_diameter\[3\]:R:1:forces:R:3:torques:R:3 energy=-0.02574080795541274 pbc="F F F"
X       10.00000000      10.00000000      10.00000000      -0.60061423      -0.20940547      -0.04882147       0.77008334       1.00000000       2.00000000       1.00000000       0.02198116       0.03507320       0.02595528       0.02147931      -0.00000000      -0.02012355
X       11.85478351      11.80869463      11.53958244       0.07633900      -0.24443719       0.49560538       0.82993863       1.00000000       2.00000000       1.00000000      -0.02198116      -0.03507320      -0.02595528      -0.00164674      -0.00000000      -0.00417336
2
Lattice="20.0 0.0 0.0 0.0 20.0 0.0 0.0 0.0 20.0" Properties=species:S:1:pos:R:3:quaternions:R:4:c_diameter\[1\]:R:1:c_diameter\[2\]:R:1:c_diameter\[3\]:R:1:forces:R:3:torques:R:3 energy=-0.13760509611366448 pbc="F F F"
X       10.00000000      10.00000000      10.00000000       0.55829631      -0.06378745       0.47344962       0.67829333       1.00000000       2.00000000       1.00000000       0.26170518       0.29661750       0.22991025      -0.10440707       0.00000000      -0.15936976
X       11.51633288      11.28930454      11.30411483       0.15818781      -0.42592981       0.23706635       0.85869666       1.00000000       2.00000000       1.00000000      -0.26170518      -0.29661750      -0.22991025       0.00801401      -0.00000000       0.05565485
2
Lattice="20.0 0.0 0.0 0.0 20.0 0.0 0.0 0.0 20.0" Properties=species:S:1:pos:R:3:quaternions:R:4:c_diameter\[1\]:R:1:c_diameter\[2\]:R:1:c_diameter\[3\]:R:1:forces:R:3:torques:R:3 energy=-0.1068344315210209 pbc="F F F"
X       10.00000000      10.00000000      10.00000000       0.71922334      -0.54151591       0.41385624       0.13491223       1.00000000       2.00000000       1.00000000       0.14295727       0.26093569       0.12609261       0.16600702       0.00000000      -0.00826112
X       11.28328198      11.70972474      11.34053573       0.56113773       0.30189502       0.55831574       0.53128841       1.00000000       2.00000000       1.00000000      -0.14295727      -0.26093569      -0.12609261      -0.17775673      -0.00000000       0.02560443
2
Lattice="20.0 0.0 0.0 0.0 20.0 0.0 0.0 0.0 20.0" Properties=species:S:1:pos:R:3:quaternions:R:4:c_diameter\[1\]:R:1:c_diameter\[2\]:R:1:c_diameter\[3\]:R:1:forces:R:3:torques:R:3 energy=-0.05648751011909083 pbc="F F F"
X       10.00000000      10.00000000      10.00000000       0.57676467      -0.54947206      -0.08715027       0.59818709       1.00000000       2.00000000       1.00000000       0.07530868       0.09283893       0.03291789       0.03889168       0.00000000      -0.06286384
X       11.98987089      11.33980084      11.34243838       0.36926601      -0.14844156       0.50912845       0.76314870       1.00000000       2.00000000       1.00000000      -0.07530868      -0.09283893      -0.03291789       0.01386206      -0.00000000      -0.07361771
2
Lattice="20.0 0.0 0.0 0.0 20.0 0.0 0.0 0.0 20.0" Properties=species:S:1:pos:R:3:quaternions:R:4:c_diameter\[1\]:R:1:c_diameter\[2\]:R:1:c_diameter\[3\]:R:1:forces:R:3:torques:R:3 energy=-0.03168902194848018 pbc="F F F"
X       10.00000000      10.00000000      10.00000000       0.91150173      -0.15995089      -0.32913070      -0.18775858       1.00000000       2.00000000       1.00000000       0.05704744       0.01727076       0.02636003      -0.01950652       0.00000000       0.02528769
X       11.96907372      11.31461607      11.20684329       0.86238230       0.14452581      -0.47303732      -0.10791083       1.00000000       2.00000000       1.00000000      -0.05704744      -0.01727076      -0.02636003      -0.01898591      -0.00000000      -0.00834304
2
Lattice="20.0 0.0 0.0 0.0 20.0 0.0 0.0 0.0 20.0" Properties=species:S:1:pos:R:3:quaternions:R:4:c_diameter\[1\]:R:1:c_diameter\[2\]:R:1:c_diameter\[3\]:R:1:forces:R:3:torques:R:3 energy=-0.08106357035052013 pbc="F F F"
X       10.00000000      10.00000000      10.00000000      -0.08925644       0.95064351       0.09227594       0.28248073       1.00000000       2.00000000       1.00000000       0.17254927       0.07325464       0.15047797      -0.03276947      -0.00000000      -0.05430776
X       11.40930400      11.00452242      11.29569307       0.77689858      -0.25671117       0.54789888      -0.17416882       1.00000000       2.00000000       1.00000000      -0.17254927      -0.07325464      -0.15047797       0.04065868      -0.00000000       0.01670727
2
Lattice="20.0 0.0 0.0 0.0 20.0 0.0 0.0 0.0 20.0" Properties=species:S:1:pos:R:3:quaternions:R:4:c_diameter\[1\]:R:1:c_diameter\[2\]:R:1:c_diameter\[3\]:R:1:forces:R:3:torques:R:3 energy=-0.047191325378500265 pbc="F F F"
X       10.00000000      10.00000000      10.00000000       0.87206231       0.26384640      -0.40284749       0.08721418       1.00000000       2.00000000       1.00000000       0.06565889       0.03888128       0.07516443      -0.03300115      -0.00000000      -0.01511585
X       11.41475624      11.64036770      11.43226871      -0.46823853      -0.00989723       0.88128406      -0.06319118       1.00000000       2.00000000       1.00000000      -0.06565889      -0.03888128      -0.07516443      -0.01321774      -0.00000000      -0.05072545
2
Lattice="20.0 0.0 0.0 0.0 20.0 0.0 0.0 0.0 20.0" Properties=species:S:1:pos:R:3:quaternions:R:4:c_diameter\[1\]:R:1:c_diameter\[2\]:R:1:c_diameter\[3\]:R:1:forces:R:3:torques:R:3 energy=-0.034148686046187884 pbc="F F F"
X       10.00000000      10.00000000      10.00000000      -0.27285491      -0.51764575       0.60467909       0.54032978       1.00000000       2.00000000       1.00000000       0.03032741       0.05678920       0.03593457       0.01118152      -0.00000000       0.03048834
X       11.34041898      11.98228712      11.00421937       0.49147967       0.45031939       0.05642440       0.74328761       1.00000000       2.00000000       1.00000000      -0.03032741      -0.05678920      -0.03593457       0.00690431      -0.00000000      -0.00465859
2
Lattice="20.0 0.0 0.0 0.0 20.0 0.0 0.0 0.0 20.0" Properties=species:S:1:pos:R:3:quaternions:R:4:c_diameter\[1\]:R:1:c_diameter\[2\]:R:1:c_diameter\[3\]:R:1:forces:R:3:torques:R:3 energy=-0.041999242106373166 pbc="F F F"
X       10.00000000      10.00000000      10.00000000       0.60988301       0.27818151       0.44189124       0.59614586       1.00000000       2.00000000       1.00000000       0.04566500       0.05000451       0.06740816      -0.04546986      -0.00000000       0.02269711
X       11.45710384      11.46572716      11.82540959       0.80978306      -0.41053654       0.39386091      -0.14347379       1.00000000       2.00000000       1.00000000      -0.04566500      -0.05000451      -0.06740816       0.01515956       0.00000000       0.03323740
2
Lattice="20.0 0.0 0.0 0.0 20.0 0.0 0.0 0.0 20.0" Properties=species:S:1:pos:R:3:quaternions:R:4:c_diameter\[1\]:R:1:c_diameter\[2\]:R:1:c_diameter\[3\]:R:1:forces:R:3:torques:R:3 energy=-0.021037624519189536 pbc="F F F"
X       10.00000000      10.00000000      10.00000000       0.39292841      -0.50838152       0.21154292       0.73648156       1.00000000       2.00000000       1.00000000       0.02613703       0.02103654       0.02014986       0.00488564      -0.00000000      -0.01772770
X       11.67920193      11.20031324      11.90006534       0.57950317       0.59120891      -0.07946057       0.55527842       1.00000000       2.00000000       1.00000000      -0.02613703      -0.02103654      -0.02014986       0.01348503       0.00000000      -0.00600158
2
Lattice="20.0 0.0 0.0 0.0 20.0 0.0 0.0 0.0 20.0" Properties=species:S:1:pos:R:3:quaternions:R:4:c_diameter\[1\]:R:1:c_diameter\[2\]:R:1:c_diameter\[3\]:R:1:forces:R:3:torques:R:3 energy=-1.2531698165818939 pbc="F F F"
X       10.00000000      10.00000000      10.00000000      -0.07688544       0.58783971      -0.54292476       0.59478215       1.00000000       2.00000000       1.00000000       3.29383423       4.48509902       4.06928773      -1.30492412       0.00000000       0.31680970
X       11.37962465      11.02373042      11.14991049      -0.18832314      -0.59413700       0.77007582       0.13608400       1.00000000       2.00000000       1.00000000      -3.29383423      -4.48509902      -4.06928773      -0.48262397       0.00000000       2.13919788
2
Lattice="20.0 0.0 0.0 0.0 20.0 0.0 0.0 0.0 20.0" Properties=species:S:1:pos:R:3:quaternions:R:4:c_diameter\[1\]:R:1:c_diameter\[2\]:R:1:c_diameter\[3\]:R:1:forces:R:3:torques:R:3 energy=-0.045296923108984255 pbc="F F F"
X       10.00000000      10.00000000      10.00000000      -0.57327985       0.64760522       0.41710669       0.27924844       1.00000000       2.00000000       1.00000000       0.07593013       0.04533558       0.04492121      -0.00241023       0.00000000       0.06332600
X       11.61373079      11.25237794      11.91849759       0.23119292       0.10127669      -0.29819598       0.92052812       1.00000000       2.00000000       1.00000000      -0.07593013      -0.04533558      -0.04492121       0.03900581       0.00000000       0.03944646
2
Lattice="20.0 0.0 0.0 0.0 20.0 0.0 0.0 0.0 20.0" Properties=species:S:1:pos:R:3:quaternions:R:4:c_diameter\[1\]:R:1:c_diameter\[2\]:R:1:c_diameter\[3\]:R:1:forces:R:3:torques:R:3 energy=-0.07358254167605817 pbc="F F F"
X       10.00000000      10.00000000      10.00000000       0.71126232      -0.29490756       0.61210815       0.18016398       1.00000000       2.00000000       1.00000000       0.14679482       0.05435008       0.07658258       0.10335983      -0.00000000      -0.01165351
X       11.68762059      11.60575497      11.34770500      -0.64876879       0.06393976       0.75689466       0.04605694       1.00000000       2.00000000       1.00000000      -0.14679482      -0.05435008      -0.07658258      -0.05316157      -0.00000000      -0.08897384
2
Lattice="20.0 0.0 0.0 0.0 20.0 0.0 0.0 0.0 20.0" Properties=species:S:1:pos:R:3:quaternions:R:4:c_diameter\[1\]:R:1:c_diameter\[2\]:R:1:c_diameter\[3\]:R:1:forces:R:3:torques:R:3 energy=-0.12050145084604887 pbc="F F F"
X       10.00000000      10.00000000      10.00000000       0.55934269       0.37626262       0.61859284      -0.40361503       1.00000000       2.00000000       1.00000000       0.28288662       0.16540974       0.19367529      -0.10160765       0.00000000      -0.11288021
X       11.26544723      11.13541452      11.68516748       0.75536003      -0.30360545      -0.53248778      -0.23175790       1.00000000       2.00000000       1.00000000      -0.28288662      -0.16540974      -0.19367529      -0.21712958       0.00000000       0.00814021
2
Lattice="20.0 0.0 0.0 0.0 20.0 0.0 0.0 0.0 20.0" Properties=species:S:1:pos:R:3:quaternions:R:4:c_diameter\[1\]:R:1:c_diameter\[2\]:R:1:c_diameter\[3\]:R:1:forces:R:3:torques:R:3 energy=-0.05573394855854539 pbc="F F F"
X       10.00000000      10.00000000      10.00000000       0.73526246      -0.11037307       0.34993584      -0.56987000       1.00000000       2.00000000       1.00000000       0.07508535       0.06806698       0.09214553       0.00068402       0.00000000      -0.06149446
X       11.47298134      11.44831617      11.78272372      -0.47771098       0.12304516       0.83612766       0.23988046       1.00000000       2.00000000       1.00000000      -0.07508535      -0.06806698      -0.09214553      -0.03416034      -0.00000000      -0.06206045
2
Lattice="20.0 0.0 0.0 0.0 20.0 0.0 0.0 0.0 20.0" Properties=species:S:1:pos:R:3:quaternions:R:4:c_diameter\[1\]:R:1:c_diameter\[2\]:R:1:c_diameter\[3\]:R:1:forces:R:3:torques:R:3 energy=-0.06281704392216715 pbc="F F F"
X       10.00000000      10.00000000      10.00000000       0.50279785       0.55531380       0.39609022       0.53097405       1.00000000       2.00000000       1.00000000       0.03164287       0.09089240       0.11652163      -0.04246841      -0.00000000       0.03330783
X       11.28799103      11.49147447      11.79585162       0.32050769       0.79149748      -0.47342019      -0.21605528       1.00000000       2.00000000       1.00000000      -0.03164287      -0.09089240      -0.11652163      -0.01981363      -0.00000000       0.06145024
2
Lattice="20.0 0.0 0.0 0.0 20.0 0.0 0.0 0.0 20.0" Properties=species:S:1:pos:R:3:quaternions:R:4:c_diameter\[1\]:R:1:c_diameter\[2\]:R:1:c_diameter\[3\]:R:1:forces:R:3:torques:R:3 energy=-0.03870850547149058 pbc="F F F"
X       10.00000000      10.00000000      10.00000000      -0.44997513       0.42303207       0.01684020       0.78630952       1.00000000       2.00000000       1.00000000       0.01590676       0.05688690       0.06041060       0.03004921      -0.00000000      -0.02934956
X       11.21108271      11.73868150      11.60590001      -0.50522736       0.62395295       0.46277691      -0.37585312       1.00000000       2.00000000       1.00000000      -0.01590676      -0.05688690      -0.06041060       0.04644875      -0.00000000      -0.00651017
2
Lattice="20.0 0.0 0.0 0.0 20.0 0.0 0.0 0.0 20.0" Properties=species:S:1:pos:R:3:quaternions:R:4:c_diameter\[1\]:R:1:c_diameter\[2\]:R:1:c_diameter\[3\]:R:1:forces:R:3:torques:R:3 energy=-0.2342017805399502 pbc="F F F"
X       10.00000000      10.00000000      10.00000000       0.25523562       0.24030440       0.78935250       0.50401508       1.00000000       2.00000000       1.00000000       0.49757053       0.46086099       0.57153858      -0.09555070      -0.00000000      -0.00070878
X       11.44870563      11.04043655      11.53018007      -0.52904870      -0.32055919       0.69829640       0.36018248       1.00000000       2.00000000       1.00000000      -0.49757053      -0.46086099      -0.57153858       0.06918521      -0.00000000       0.10039134
2
Lattice="20.0 0.0 0.0 0.0 20.0 0.0 0.0 0.0 20.0" Properties=species:S:1:pos:R:3:quaternions:R:4:c_diameter\[1\]:R:1:c_diameter\[2\]:R:1:c_diameter\[3\]:R:1:forces:R:3:torques:R:3 energy=-0.21599832361743326 pbc="F F F"
X       10.00000000      10.00000000      10.00000000      -0.07365933      -0.01554083      -0.52591896       0.84719658       1.00000000       2.00000000       1.00000000       0.52745326       0.37739485       0.15225238      -0.17619445      -0.00000000       0.34444513
X       11.74609083      11.40319953      11.37172060      -0.42547436      -0.16503259      -0.34358420       0.82078360       1.00000000       2.00000000       1.00000000      -0.52745326      -0.37739485      -0.15225238      -0.19315464       0.00000000      -0.08075960
2
Lattice="20.0 0.0 0.0 0.0 20.0 0.0 0.0 0.0 20.0" Properties=species:S:1:pos:R:3:quaternions:R:4:c_diameter\[1\]:R:1:c_diameter\[2\]:R:1:c_diameter\[3\]:R:1:forces:R:3:torques:R:3 energy=-0.057077699175396644 pbc="F F F"
X       10.00000000      10.00000000      10.00000000      -0.51159248       0.79696930       0.29704662      -0.12196878       1.00000000       2.00000000       1.00000000       0.02899598       0.09843068       0.09743106       0.07247032       0.00000000       0.01895069
X       11.20982693      11.63913053      11.68629691      -0.40069927      -0.23153335       0.12861647       0.87709190       1.00000000       2.00000000       1.00000000      -0.02899598      -0.09843068      -0.09743106       0.08357540      -0.00000000       0.01755652
2
Lattice="20.0 0.0 0.0 0.0 20.0 0.0 0.0 0.0 20.0" Properties=species:S:1:pos:R:3:quaternions:R:4:c_diameter\[1\]:R:1:c_diameter\[2\]:R:1:c_diameter\[3\]:R:1:forces:R:3:torques:R:3 energy=-0.0308628381518402 pbc="F F F"
X       10.00000000      10.00000000      10.00000000       0.09514378       0.82323607       0.54739933      -0.11655045       1.00000000       2.00000000       1.00000000       0.04100008       0.03288650       0.04224482       0.01281122      -0.00000000       0.00925613
X       11.68143266      11.37210882      11.29792510       0.96349003       0.21035064       0.16516310      -0.01267786       1.00000000       2.00000000       1.00000000      -0.04100008      -0.03288650      -0.04224482      -0.01240273      -0.00000000       0.01732524
2
Lattice="20.0 0.0 0.0 0.0 20.0 0.0 0.0 0.0 20.0" Properties=species:S:1:pos:R:3:quaternions:R:4:c_diameter\[1\]:R:1:c_diameter\[2\]:R:1:c_diameter\[3\]:R:1:forces:R:3:torques:R:3 energy=-0.1268891949071849 pbc="F F F"
X       10.00000000      10.00000000      10.00000000      -0.57502552       0.70674827      -0.41106743       0.02959904       1.00000000       2.00000000       1.00000000       0.24437981       0.31773672       0.16680189       0.00207788       0.00000000       0.02489921
X       11.39929298      11.22474464      11.18409292       0.75241055       0.51494327       0.03082380      -0.40958722       1.00000000       2.00000000       1.00000000      -0.24437981      -0.31773672      -0.16680189       0.14917322      -0.00000000      -0.17531629
2
Lattice="20.0 0.0 0.0 0.0 20.0 0.0 0.0 0.0 20.0" Properties=species:S:1:pos:R:3:quaternions:R:4:c_diameter\[1\]:R:1:c_diameter\[2\]:R:1:c_diameter\[3\]:R:1:forces:R:3:torques:R:3 energy=-0.07455204165010024 pbc="F F F"
X       10.00000000      10.00000000      10.00000000      -0.11815404       0.23271711      -0.60299378       0.75384406       1.00000000       2.00000000       1.00000000       0.11137785       0.15375761       0.06189035      -0.10157725      -0.00000000       0.03278654
X       11.38668439      11.65221830      11.37687916       0.59647494       0.74106572       0.28885820       0.10770414       1.00000000       2.00000000       1.00000000      -0.11137785      -0.15375761      -0.06189035       0.00536464      -0.00000000      -0.05067108
2
Lattice="20.0 0.0 0.0 0.0 20.0 0.0 0.0 0.0 20.0" Properties=species:S:1:pos:R:3:quaternions:R:4:c_diameter\[1\]:R:1:c_diameter\[2\]:R:1:c_diameter\[3\]:R:1:forces:R:3:torques:R:3 energy=-0.0561987559519596 pbc="F F F"
X       10.00000000      10.00000000      10.00000000       0.79662242       0.26689309       0.31444127      -0.44191343       1.00000000       2.00000000       1.00000000       0.09989665       0.08301667       0.05758332       0.00432406      -0.00000000      -0.07242445
X       11.56513787      11.16921539      11.60006995       0.37587154       0.36017542      -0.39364778       0.75765142       1.00000000       2.00000000       1.00000000      -0.09989665      -0.08301667      -0.05758332       0.05712707      -0.00000000       0.04387144
2
Lattice="20.0 0.0 0.0 0.0 20.0 0.0 0.0 0.0 20.0" Properties=species:S:1:pos:R:3:quaternions:R:4:c_diameter\[1\]:R:1:c_diameter\[2\]:R:1:c_diameter\[3\]:R:1:forces:R:3:torques:R:3 energy=-0.04534898957228879 pbc="F F F"
X       10.00000000      10.00000000      10.00000000       0.33526450      -0.54816989       0.09431909       0.76040213       1.00000000       2.00000000       1.00000000       0.08263127       0.04753649       0.05145404       0.01175841      -0.00000000      -0.00354354
X       11.70256514      11.30575642      11.15328405       0.96136458      -0.00459832       0.24866173      -0.11800142       1.00000000       2.00000000       1.00000000      -0.08263127      -0.04753649      -0.05145404       0.00602333       0.00000000       0.03949391
2
Lattice="20.0 0.0 0.0 0.0 20.0 0.0 0.0 0.0 20.0" Properties=species:S:1:pos:R:3:quaternions:R:4:c_diameter\[1\]:R:1:c_diameter\[2\]:R:1:c_diameter\[3\]:R:1:forces:R:3:torques:R:3 energy=-0.07941676247066035 pbc="F F F"
X       10.00000000      10.00000000      10.00000000       0.36998407      -0.65116439       0.65189035      -0.11889369       1.00000000       2.00000000       1.00000000       0.13183096       0.13451986       0.14160220      -0.08951976      -0.00000000      -0.02179255
X       11.48393444      11.21612889      11.09567185       0.75438696      -0.21878484       0.57591785      -0.22661008       1.00000000       2.00000000       1.00000000      -0.13183096      -0.13451986      -0.14160220      -0.00478745      -0.00000000       0.02643514
2
Lattice="20.0 0.0 0.0 0.0 20.0 0.0 0.0 0.0 20.0" Properties=species:S:1:pos:R:3:quaternions:R:4:c_diameter\[1\]:R:1:c_diameter\[2\]:R:1:c_diameter\[3\]:R:1:forces:R:3:torques:R:3 energy=-0.024244245886097346 pbc="F F F"
X       10.00000000      10.00000000      10.00000000       0.83291423       0.02761144       0.54708115      -0.07870012       1.00000000       2.00000000       1.00000000       0.02359036       0.01318641       0.03154075       0.01479035      -0.00000000       0.02062833
X       11.54038693      11.93934374      11.75113406      -0.19096330       0.83028687       0.02220106       0.52312890       1.00000000       2.00000000       1.00000000      -0.02359036      -0.01318641      -0.03154075      -0.00674667       0.00000000      -0.02478335
2
Lattice="20.0 0.0 0.0 0.0 20.0 0.0 0.0 0.0 20.0" Properties=species:S:1:pos:R:3:quaternions:R:4:c_diameter\[1\]:R:1:c_diameter\[2\]:R:1:c_diameter\[3\]:R:1:forces:R:3:torques:R:3 energy=-0.04932851102506974 pbc="F F F"
X       10.00000000      10.00000000      10.00000000       0.85556870      -0.26617428      -0.42857913       0.11607489       1.00000000       2.00000000       1.00000000       0.04607126       0.06324087       0.07217503      -0.04551767      -0.00000000      -0.00872337
X       11.63195020      11.97902507      11.53476636      -0.50941047      -0.39069600       0.43585717       0.63078216       1.00000000       2.00000000       1.00000000      -0.04607126      -0.06324087      -0.07217503       0.05720664      -0.00000000       0.02743360
2
Lattice="20.0 0.0 0.0 0.0 20.0 0.0 0.0 0.0 20.0" Properties=species:S:1:pos:R:3:quaternions:R:4:c_diameter\[1\]:R:1:c_diameter\[2\]:R:1:c_diameter\[3\]:R:1:forces:R:3:torques:R:3 energy=-0.0862041665063157 pbc="F F F"
X       10.00000000      10.00000000      10.00000000       0.58227197       0.64048511       0.07577992      -0.49497028       1.00000000       2.00000000       1.00000000       0.04349278       0.15567133       0.15556124       0.07275117      -0.00000000      -0.07711336
X       11.15042645      11.62524288      11.89645301      -0.46385667       0.41795944       0.70486242      -0.33662423       1.00000000       2.00000000       1.00000000      -0.04349278      -0.15567133      -0.15556124       0.08960840      -0.00000000      -0.08583726
2
Lattice="20.0 0.0 0.0 0.0 20.0 0.0 0.0 0.0 20.0" Properties=species:S:1:pos:R:3:quaternions:R:4:c_diameter\[1\]:R:1:c_diameter\[2\]:R:1:c_diameter\[3\]:R:1:forces:R:3:torques:R:3 energy=-0.04446878960614295 pbc="F F F"
X       10.00000000      10.00000000      10.00000000      -0.17653836       0.59722357       0.13992776       0.76979116       1.00000000       2.00000000       1.00000000       0.06517768       0.03412255       0.07507698       0.00904341       0.00000000      -0.02288696
X       11.15109785      11.29213552      11.88968328       0.72340830      -0.15394683      -0.57915634      -0.34286839       1.00000000       2.00000000       1.00000000      -0.06517768      -0.03412255      -0.07507698      -0.05975550      -0.00000000      -0.00300042
2
Lattice="20.0 0.0 0.0 0.0 20.0 0.0 0.0 0.0 20.0" Properties=species:S:1:pos:R:3:quaternions:R:4:c_diameter\[1\]:R:1:c_diameter\[2\]:R:1:c_diameter\[3\]:R:1:forces:R:3:torques:R:3 energy=-0.04799170372943879 pbc="F F F"
X       10.00000000      10.00000000      10.00000000       0.67542312      -0.18888348      -0.29712059       0.64795524       1.00000000       2.00000000       1.00000000       0.02774080       0.09314795       0.05374016      -0.01664216      -0.00000000      -0.05587192
X       11.36966604      11.82764605      11.13961404       0.80825442       0.32100448      -0.17334680      -0.46220320       1.00000000       2.00000000       1.00000000      -0.02774080      -0.09314795      -0.05374016       0.03065606       0.00000000      -0.03825097
2
Lattice="20.0 0.0 0.0 0.0 20.0 0.0 0.0 0.0 20.0" Properties=species:S:1:pos:R:3:quaternions:R:4:c_diameter\[1\]:R:1:c_diameter\[2\]:R:1:c_diameter\[3\]:R:1:forces:R:3:torques:R:3 energy=-0.043723627440000856 pbc="F F F"
X       10.00000000      10.00000000      10.00000000       0.95817914      -0.12730884      -0.23951128      -0.09121152       1.00000000       2.00000000       1.00000000       0.05935692       0.02260026       0.07487174      -0.05237676      -0.00000000      -0.00391328
X       11.19009978      11.26563126      11.95949274       0.34664071       0.74820265       0.23398122       0.51505903       1.00000000       2.00000000       1.00000000      -0.05935692      -0.02260026      -0.07487174       0.02582232       0.00000000      -0.02029709
2
Lattice="20.0 0.0 0.0 0.0 20.0 0.0 0.0 0.0 20.0" Properties=species:S:1:pos:R:3:quaternions:R:4:c_diameter\[1\]:R:1:c_diameter\[2\]:R:1:c_diameter\[3\]:R:1:forces:R:3:torques:R:3 energy=-0.02846830215436806 pbc="F F F"
X       10.00000000      10.00000000      10.00000000      -0.50517399      -0.12545529       0.33009317       0.78746347       1.00000000       2.00000000       1.00000000       0.01887653       0.03568088       0.04266194       0.02057455      -0.00000000       0.01110213
X       11.37111257      11.41480768      11.73542532       0.87374674       0.17133280      -0.02175299      -0.45468507       1.00000000       2.00000000       1.00000000      -0.01887653      -0.03568088      -0.04266194       0.01242898      -0.00000000      -0.01840093
2
Lattice="20.0 0.0 0.0 0.0 20.0 0.0 0.0 0.0 20.0" Properties=species:S:1:pos:R:3:quaternions:R:4:c_diameter\[1\]:R:1:c_diameter\[2\]:R:1:c_diameter\[3\]:R:1:forces:R:3:torques:R:3 energy=-0.05699128183650535 pbc="F F F"
X       10.00000000      10.00000000      10.00000000       0.03276332       0.00267629       0.98240690      -0.18383713       1.00000000       2.00000000       1.00000000       0.10861893       0.06651330       0.07769563       0.03164940      -0.00000000      -0.02715942
X       11.36550103      11.36066517      11.53453787       0.78197718      -0.51824777      -0.22486884      -0.26337225       1.00000000       2.00000000       1.00000000      -0.10861893      -0.06651330      -0.07769563      -0.02808036       0.00000000       0.07655022
2
Lattice="20.0 0.0 0.0 0.0 20.0 0.0 0.0 0.0 20.0" Properties=species:S:1:pos:R:3:quaternions:R:4:c_diameter\[1\]:R:1:c_diameter\[2\]:R:1:c_diameter\[3\]:R:1:forces:R:3:torques:R:3 energy=-0.026168353026367518 pbc="F F F"
X       10.00000000      10.00000000      10.00000000      -0.23417134       0.01408604       0.95424802      -0.18540788       1.00000000       2.00000000       1.00000000       0.03403559       0.02700724       0.02477498       0.00792340       0.00000000      -0.02201557
X       11.63838251      11.84953449      11.73249956       0.24046781       0.40893977      -0.56267422       0.67700902       1.00000000       2.00000000       1.00000000      -0.03403559      -0.02700724      -0.02477498       0.01149225       0.00000000       0.02928843
2
Lattice="20.0 0.0 0.0 0.0 20.0 0.0 0.0 0.0 20.0" Properties=species:S:1:pos:R:3:quaternions:R:4:c_diameter\[1\]:R:1:c_diameter\[2\]:R:1:c_diameter\[3\]:R:1:forces:R:3:torques:R:3 energy=-0.2971746752184128 pbc="F F F"
X       10.00000000      10.00000000      10.00000000      -0.57759314       0.11680391       0.76884571       0.24823233       1.00000000       2.00000000       1.00000000       0.74466633       0.45143197       0.83699997      -0.52385645      -0.00000000      -0.35154561
X       11.03200840      11.44110672      11.29167691      -0.11771076      -0.42861869       0.22186338       0.86787490       1.00000000       2.00000000       1.00000000      -0.74466633      -0.45143197      -0.83699997       0.19632350      -0.00000000       0.48208980
2
Lattice="20.0 0.0 0.0 0.0 20.0 0.0 0.0 0.0 20.0" Properties=species:S:1:pos:R:3:quaternions:R:4:c_diameter\[1\]:R:1:c_diameter\[2\]:R:1:c_diameter\[3\]:R:1:forces:R:3:torques:R:3 energy=-0.04007722173376512 pbc="F F F"
X       10.00000000      10.00000000      10.00000000       0.03044197      -0.44770052       0.77691314       0.44163730       1.00000000       2.00000000       1.00000000       0.03945230       0.05566218       0.05919355      -0.00244490       0.00000000      -0.01714788
X       11.50327109      11.39055872      11.77632728       0.61903192      -0.48476792      -0.38511804       0.48320145       1.00000000       2.00000000       1.00000000      -0.03945230      -0.05566218      -0.05919355       0.03266437      -0.00000000      -0.03663885
2
Lattice="20.0 0.0 0.0 0.0 20.0 0.0 0.0 0.0 20.0" Properties=species:S:1:pos:R:3:quaternions:R:4:c_diameter\[1\]:R:1:c_diameter\[2\]:R:1:c_diameter\[3\]:R:1:forces:R:3:torques:R:3 energy=-0.07282739663047864 pbc="F F F"
X       10.00000000      10.00000000      10.00000000       0.54337981       0.12113730       0.03094666       0.83012435       1.00000000       2.00000000       1.00000000       0.10872495       0.10414335       0.13936728      -0.05151262       0.00000000      -0.03058812
X       11.28149336      11.07590002      11.49902911       0.33080308       0.84712820       0.27942797       0.30799861       1.00000000       2.00000000       1.00000000      -0.10872495      -0.10414335      -0.13936728       0.00590005       0.00000000      -0.03632687
2
Lattice="20.0 0.0 0.0 0.0 20.0 0.0 0.0 0.0 20.0" Properties=species:S:1:pos:R:3:quaternions:R:4:c_diameter\[1\]:R:1:c_diameter\[2\]:R:1:c_diameter\[3\]:R:1:forces:R:3:torques:R:3 energy=-0.12203326343809884 pbc="F F F"
X       10.00000000      10.00000000      10.00000000       0.49795034       0.86463047       0.06103855      -0.02709080       1.00000000       2.00000000       1.00000000       0.26990670       0.19347867       0.20723109       0.07327704      -0.00000000      -0.19550972
X       11.12361258      11.28181477      11.60324733       0.29605013       0.49332406       0.13790838       0.80620529       1.00000000       2.00000000       1.00000000      -0.26990670      -0.19347867      -0.20723109       0.05757203      -0.00000000      -0.04381061
2
Lattice="20.0 0.0 0.0 0.0 20.0 0.0 0.0 0.0 20.0" Properties=species:S:1:pos:R:3:quaternions:R:4:c_diameter\[1\]:R:1:c_diameter\[2\]:R:1:c_diameter\[3\]:R:1:forces:R:3:torques:R:3 energy=-0.04179021910796752 pbc="F F F"
X       10.00000000      10.00000000      10.00000000      -0.09310151       0.77275117      -0.53464474      -0.32915458       1.00000000       2.00000000       1.00000000       0.03601203       0.07373956       0.05097470      -0.01837601       0.00000000       0.03840853
X       11.17247990      11.94496953      11.12625026       0.22771668       0.49405167       0.67826982      -0.49397177       1.00000000       2.00000000       1.00000000      -0.03601203      -0.07373956      -0.05097470      -0.01030801      -0.00000000      -0.00874119
2
Lattice="20.0 0.0 0.0 0.0 20.0 0.0 0.0 0.0 20.0" Properties=species:S:1:pos:R:3:quaternions:R:4:c_diameter\[1\]:R:1:c_diameter\[2\]:R:1:c_diameter\[3\]:R:1:forces:R:3:torques:R:3 energy=-0.442699074729262 pbc="F F F"
X       10.00000000      10.00000000      10.00000000       0.17350965       0.78357666      -0.04224073      -0.59507793       1.00000000       2.00000000       1.00000000       1.13898823       0.68841356       1.19105247      -0.75575009       0.00000000       0.51416808
X       11.38186099      11.21792319      11.58645966       0.58738576       0.73635241      -0.13116886      -0.30912429       1.00000000       2.00000000       1.00000000      -1.13898823      -0.68841356      -1.19105247       0.31440478      -0.00000000      -0.27885195
2
Lattice="20.0 0.0 0.0 0.0 20.0 0.0 0.0 0.0 20.0" Properties=species:S:1:pos:R:3:quaternions:R:4:c_diameter\[1\]:R:1:c_diameter\[2\]:R:1:c_diameter\[3\]:R:1:forces:R:3:torques:R:3 energy=-0.049568802200865826 pbc="F F F"
X       10.00000000      10.00000000      10.00000000      -0.12968146       0.66277510       0.63811832       0.36975247       1.00000000       2.00000000       1.00000000       0.07846502       0.05426215       0.06538167      -0.01901853      -0.00000000       0.05704688
X       11.94791550      11.27930124      11.58519286       0.83017996       0.03287549       0.55571723       0.02997988       1.00000000       2.00000000       1.00000000      -0.07846502      -0.05426215      -0.06538167       0.02337424       0.00000000       0.05011519
2
Lattice="20.0 0.0 0.0 0.0 20.0 0.0 0.0 0.0 20.0" Properties=species:S:1:pos:R:3:quaternions:R:4:c_diameter\[1\]:R:1:c_diameter\[2\]:R:1:c_diameter\[3\]:R:1:forces:R:3:torques:R:3 energy=-0.030931899434098444 pbc="F F F"
X       10.00000000      10.00000000      10.00000000       0.73578265      -0.21120074      -0.46994640      -0.43950941       1.00000000       2.00000000       1.00000000       0.04118199       0.02417396       0.04397151      -0.03385538      -0.00000000       0.01097409
X       11.24099128      11.43465032      11.90075389       0.76995434       0.10887541      -0.61619609       0.12497539       1.00000000       2.00000000       1.00000000      -0.04118199      -0.02417396      -0.04397151      -0.01192764       0.00000000      -0.01903271
2
Lattice="20.0 0.0 0.0 0.0 20.0 0.0 0.0 0.0 20.0" Properties=species:S:1:pos:R:3:quaternions:R:4:c_diameter\[1\]:R:1:c_diameter\[2\]:R:1:c_diameter\[3\]:R:1:forces:R:3:torques:R:3 energy=-0.28079203866667146 pbc="F F F"
X       10.00000000      10.00000000      10.00000000       0.54825139       0.74494908      -0.26659973      -0.27091671       1.00000000       2.00000000       1.00000000       0.09116069       0.76482667       0.47170353       0.41052938      -0.00000000       0.16613789
X       11.05916169      11.69771864      11.59963082      -0.33663234       0.21930603      -0.46104711       0.79121368       1.00000000       2.00000000       1.00000000      -0.09116069      -0.76482667      -0.47170353      -0.22993915       0.00000000      -0.34566648
2
Lattice="20.0 0.0 0.0 0.0 20.0 0.0 0.0 0.0 20.0" Properties=species:S:1:pos:R:3:quaternions:R:4:c_diameter\[1\]:R:1:c_diameter\[2\]:R:1:c_diameter\[3\]:R:1:forces:R:3:torques:R:3 energy=-0.05012092939900553 pbc="F F F"
X       10.00000000      10.00000000      10.00000000       0.11771521       0.67107428       0.61001112      -0.40458482       1.00000000       2.00000000       1.00000000       0.04895818       0.07482818       0.07971402      -0.01997726       0.00000000      -0.01072273
X       11.38368162      11.44567143      11.84032603      -0.01395810       0.57285378       0.77957487       0.25279782       1.00000000       2.00000000       1.00000000      -0.04895818      -0.07482818      -0.07971402       0.01357172      -0.00000000       0.05816874
2
Lattice="20.0 0.0 0.0 0.0 20.0 0.0 0.0 0.0 20.0" Properties=species:S:1:pos:R:3:quaternions:R:4:c_diameter\[1\]:R:1:c_diameter\[2\]:R:1:c_diameter\[3\]:R:1:forces:R:3:torques:R:3 energy=-0.8168114783567938 pbc="F F F"
X       10.00000000      10.00000000      10.00000000      -0.35009005      -0.38801990       0.33297534       0.78485982       1.00000000       2.00000000       1.00000000       0.97963179       2.17656605       3.23392422       1.01302583      -0.00000000       0.93048612
X       11.05714271      11.31710665      11.17459743      -0.50096361       0.39808391       0.74983925      -0.16824313       1.00000000       2.00000000       1.00000000      -0.97963179      -2.17656605      -3.23392422       1.19793329      -0.00000000      -1.06115241
2
Lattice="20.0 0.0 0.0 0.0 20.0 0.0 0.0 0.0 20.0" Properties=species:S:1:pos:R:3:quaternions:R:4:c_diameter\[1\]:R:1:c_diameter\[2\]:R:1:c_diameter\[3\]:R:1:forces:R:3:torques:R:3 energy=-0.5844512895069949 pbc="F F F"
X       10.00000000      10.00000000      10.00000000       0.80811543      -0.22003494      -0.49724522      -0.22645368       1.00000000       2.00000000       1.00000000       1.66763922       1.85391195       1.46870406      -1.16517959       0.00000000       0.44446176
X       11.20737370      11.33444610      11.09592493       0.65714723       0.18224586       0.27492825       0.67775985       1.00000000       2.00000000       1.00000000      -1.66763922      -1.85391195      -1.46870406      -1.18081121       0.00000000      -0.38221404
2
Lattice="20.0 0.0 0.0 0.0 20.0 0.0 0.0 0.0 20.0" Properties=species:S:1:pos:R:3:quaternions:R:4:c_diameter\[1\]:R:1:c_diameter\[2\]:R:1:c_diameter\[3\]:R:1:forces:R:3:torques:R:3 energy=-0.14531649651598477 pbc="F F F"
X       10.00000000      10.00000000      10.00000000      -0.62485612       0.65739249       0.42116616       0.00300099       1.00000000       2.00000000       1.00000000       0.26812147       0.42209267       0.11022470       0.15886783      -0.00000000       0.22258402
X       11.01767317      11.72195930      11.02116299       0.19552678       0.91812311       0.34460690      -0.00808155       1.00000000       2.00000000       1.00000000      -0.26812147      -0.42209267      -0.11022470      -0.00830229      -0.00000000      -0.18122132
2
Lattice="20.0 0.0 0.0 0.0 20.0 0.0 0.0 0.0 20.0" Properties=species:S:1:pos:R:3:quaternions:R:4:c_diameter\[1\]:R:1:c_diameter\[2\]:R:1:c_diameter\[3\]:R:1:forces:R:3:torques:R:3 energy=-0.027063528274212646 pbc="F F F"
X       10.00000000      10.00000000      10.00000000       0.99069329      -0.02953070       0.08782025      -0.09971129       1.00000000       2.00000000       1.00000000       0.02958153       0.02210151       0.04038272      -0.01377274      -0.00000000       0.01022698
X       11.73821041      11.14629109      11.76785342       0.53852474      -0.30358317      -0.20463473       0.75891567       1.00000000       2.00000000       1.00000000      -0.02958153      -0.02210151      -0.04038272      -0.00827744      -0.00000000      -0.02443347
2
Lattice="20.0 0.0 0.0 0.0 20.0 0.0 0.0 0.0 20.0" Properties=species:S:1:pos:R:3:quaternions:R:4:c_diameter\[1\]:R:1:c_diameter\[2\]:R:1:c_diameter\[3\]:R:1:forces:R:3:torques:R:3 energy=-0.11350845136801149 pbc="F F F"
X       10.00000000      10.00000000      10.00000000       0.74340842      -0.01715149       0.61311472      -0.26672100       1.00000000       2.00000000       1.00000000       0.21121202       0.11764892       0.25740975      -0.00941745      -0.00000000       0.00026175
X       11.20710255      11.16766114      11.72731390       0.00447194       0.27903793      -0.27068446       0.92132934       1.00000000       2.00000000       1.00000000      -0.21121202      -0.11764892      -0.25740975       0.14586612      -0.00000000       0.05241956
2
Lattice="20.0 0.0 0.0 0.0 20.0 0.0 0.0 0.0 20.0" Properties=species:S:1:pos:R:3:quaternions:R:4:c_diameter\[1\]:R:1:c_diameter\[2\]:R:1:c_diameter\[3\]:R:1:forces:R:3:torques:R:3 energy=-0.06008666817514292 pbc="F F F"
X       10.00000000      10.00000000      10.00000000      -0.39263909       0.91808372      -0.03258941      -0.04352873       1.00000000       2.00000000       1.00000000       0.03506844       0.09697698       0.11821475       0.03830912       0.00000000       0.02327664
X       11.00657096      11.07645566      11.96607227       0.38377044       0.67112326      -0.63165583      -0.05766045       1.00000000       2.00000000       1.00000000      -0.03506844      -0.09697698      -0.11821475      -0.02737300       0.00000000       0.08250465
2
Lattice="20.0 0.0 0.0 0.0 20.0 0.0 0.0 0.0 20.0" Properties=species:S:1:pos:R:3:quaternions:R:4:c_diameter\[1\]:R:1:c_diameter\[2\]:R:1:c_diameter\[3\]:R:1:forces:R:3:torques:R:3 energy=-0.024618468501694194 pbc="F F F"
X       10.00000000      10.00000000      10.00000000      -0.05470217       0.15068590       0.94506537      -0.28487343       1.00000000       2.00000000       1.00000000       0.03381662       0.00869026       0.03141502       0.01588371       0.00000000      -0.00716811
X       11.98905318      11.03058771      11.51173778       0.18645556      -0.01274172       0.97433039      -0.12550803       1.00000000       2.00000000       1.00000000      -0.03381662      -0.00869026      -0.03141502       0.00906164      -0.00000000      -0.01241342
2
Lattice="20.0 0.0 0.0 0.0 20.0 0.0 0.0 0.0 20.0" Properties=species:S:1:pos:R:3:quaternions:R:4:c_diameter\[1\]:R:1:c_diameter\[2\]:R:1:c_diameter\[3\]:R:1:forces:R:3:torques:R:3 energy=-0.013576075810649008 pbc="F F F"
X       10.00000000      10.00000000      10.00000000       0.82019693       0.25976924       0.49547363       0.11959441       1.00000000       2.00000000       1.00000000       0.00939226       0.01036548       0.01573984       0.00148289       0.00000000       0.01310869
X       11.77995632      11.88156811      11.78987775       0.38441735      -0.41378501      -0.52233117       0.63888608       1.00000000       2.00000000       1.00000000      -0.00939226      -0.01036548      -0.01573984       0.00698339      -0.00000000      -0.00444874
2
Lattice="20.0 0.0 0.0 0.0 20.0 0.0 0.0 0.0 20.0" Properties=species:S:1:pos:R:3:quaternions:R:4:c_diameter\[1\]:R:1:c_diameter\[2\]:R:1:c_diameter\[3\]:R:1:forces:R:3:torques:R:3 energy=-0.08594746458601121 pbc="F F F"
X       10.00000000      10.00000000      10.00000000       0.59539921      -0.37366675       0.03066046       0.71058629       1.00000000       2.00000000       1.00000000       0.07190021       0.13152000       0.12440040       0.01058999      -0.00000000      -0.11847691
X       11.76511431      11.16698520      11.91503349      -0.66781536      -0.14257262      -0.26327464       0.68145591       1.00000000       2.00000000       1.00000000      -0.07190021      -0.13152000      -0.12440040       0.03038979       0.00000000      -0.07548479
2
Lattice="20.0 0.0 0.0 0.0 20.0 0.0 0.0 0.0 20.0" Properties=species:S:1:pos:R:3:quaternions:R:4:c_diameter\[1\]:R:1:c_diameter\[2\]:R:1:c_diameter\[3\]:R:1:forces:R:3:torques:R:3 energy=-0.15696489217325377 pbc="F F F"
X       10.00000000      10.00000000      10.00000000       0.63136074       0.33963464       0.36492350      -0.59402253       1.00000000       2.00000000       1.00000000       0.31973654       0.27789989       0.16920355      -0.13326206      -0.00000000      -0.24861316
X       11.78350236      11.47723631      11.45430109      -0.39108293      -0.62807662       0.01598289       0.67254624       1.00000000       2.00000000       1.00000000      -0.31973654      -0.27789989      -0.16920355      -0.10942018       0.00000000       0.05449717
2
Lattice="20.0 0.0 0.0 0.0 20.0 0.0 0.0 0.0 20.0" Properties=species:S:1:pos:R:3:quaternions:R:4:c_diameter\[1\]:R:1:c_diameter\[2\]:R:1:c_diameter\[3\]:R:1:forces:R:3:torques:R:3 energy=-0.05681292853920054 pbc="F F F"
X       10.00000000      10.00000000      10.00000000       0.03016344       0.93896491      -0.03450873       0.34094606       1.00000000       2.00000000       1.00000000       0.06391120       0.06696030       0.09617621       0.00363289      -0.00000000      -0.06601894
X       11.03667843      11.96696466      11.47753650      -0.27210539       0.72513663       0.16962478       0.60939557       1.00000000       2.00000000       1.00000000      -0.06391120      -0.06696030      -0.09617621      -0.00308975      -0.00000000      -0.05131937
2
Lattice="20.0 0.0 0.0 0.0 20.0 0.0 0.0 0.0 20.0" Properties=species:S:1:pos:R:3:quaternions:R:4:c_diameter\[1\]:R:1:c_diameter\[2\]:R:1:c_diameter\[3\]:R:1:forces:R:3:torques:R:3 energy=-0.030305907967167287 pbc="F F F"
X       10.00000000      10.00000000      10.00000000       0.63316747       0.08656083      -0.51966572       0.56705707       1.00000000       2.00000000       1.00000000       0.02605077       0.03085722       0.04269658      -0.00134351       0.00000000      -0.01052586
X       11.44734489      11.93493439      11.86556214      -0.30392064      -0.23135829      -0.10602607       0.91807628       1.00000000       2.00000000       1.00000000      -0.02605077      -0.03085722      -0.04269658       0.01290969      -0.00000000       0.01596385
2
Lattice="20.0 0.0 0.0 0.0 20.0 0.0 0.0 0.0 20.0" Properties=species:S:1:pos:R:3:quaternions:R:4:c_diameter\[1\]:R:1:c_diameter\[2\]:R:1:c_diameter\[3\]:R:1:forces:R:3:torques:R:3 energy=-0.08850301681866753 pbc="F F F"
X       10.00000000      10.00000000      10.00000000      -0.31952087       0.23432429       0.73099901       0.55555287       1.00000000       2.00000000       1.00000000       0.13569377       0.15311822       0.15649821      -0.13478009      -0.00000000      -0.00679271
X       11.33144458      11.22682358      11.74649444      -0.03938519      -0.69068796       0.70296738       0.16503277       1.00000000       2.00000000       1.00000000      -0.13569377      -0.15311822      -0.15649821      -0.04773026      -0.00000000       0.08520163
2
Lattice="20.0 0.0 0.0 0.0 20.0 0.0 0.0 0.0 20.0" Properties=species:S:1:pos:R:3:quaternions:R:4:c_diameter\[1\]:R:1:c_diameter\[2\]:R:1:c_diameter\[3\]:R:1:forces:R:3:torques:R:3 energy=-0.04077734317320369 pbc="F F F"
X       10.00000000      10.00000000      10.00000000       0.34587180       0.65486456      -0.49673006      -0.45253106       1.00000000       2.00000000       1.00000000       0.03030055       0.07903545       0.04080398       0.03493225      -0.00000000       0.03724414
X       11.15196960      11.99561235      11.34451823       0.18744652      -0.08121988      -0.62372442       0.75447662       1.00000000       2.00000000       1.00000000      -0.03030055      -0.07903545      -0.04080398      -0.03082230      -0.00000000       0.02167264
2
Lattice="20.0 0.0 0.0 0.0 20.0 0.0 0.0 0.0 20.0" Properties=species:S:1:pos:R:3:quaternions:R:4:c_diameter\[1\]:R:1:c_diameter\[2\]:R:1:c_diameter\[3\]:R:1:forces:R:3:torques:R:3 energy=-0.668465538362767 pbc="F F F"
X       10.00000000      10.00000000      10.00000000       0.08819468       0.39122376       0.47166192       0.78530294       1.00000000       2.00000000       1.00000000       2.67259327       1.84863824       0.92543404      -1.03965182      -0.00000000      -0.09865802
X       11.49383507      11.00800264      11.08241461       0.34655036       0.86983501      -0.32049637       0.14342936       1.00000000       2.00000000       1.00000000      -2.67259327      -1.84863824      -0.92543404       1.09305023      -0.00000000      -0.86175494
2
Lattice="20.0 0.0 0.0 0.0 20.0 0.0 0.0 0.0 20.0" Properties=species:S:1:pos:R:3:quaternions:R:4:c_diameter\[1\]:R:1:c_diameter\[2\]:R:1:c_diameter\[3\]:R:1:forces:R:3:torques:R:3 energy=-0.016521528585555 pbc="F F F"
X       10.00000000      10.00000000      10.00000000      -0.00471108       0.88738148      -0.17889652      -0.42488580       1.00000000       2.00000000       1.00000000       0.01772348       0.01158414       0.01773964      -0.01571931       0.00000000       0.00198506
X       11.79456162      11.68781963      11.84622752       0.68350946       0.56887029       0.42228019      -0.17572951       1.00000000       2.00000000       1.00000000      -0.01772348      -0.01158414      -0.01773964      -0.00383781      -0.00000000      -0.00546667
2
Lattice="20.0 0.0 0.0 0.0 20.0 0.0 0.0 0.0 20.0" Properties=species:S:1:pos:R:3:quaternions:R:4:c_diameter\[1\]:R:1:c_diameter\[2\]:R:1:c_diameter\[3\]:R:1:forces:R:3:torques:R:3 energy=-0.03801464988320611 pbc="F F F"
X       10.00000000      10.00000000      10.00000000      -0.35299475       0.76945710      -0.40111776      -0.34990717       1.00000000       2.00000000       1.00000000       0.05017486       0.05572375       0.05137870      -0.00044407       0.00000000       0.00000411
X       11.43517729      11.33622750      11.32858195       0.44921085      -0.11196977      -0.03505582       0.88568813       1.00000000       2.00000000       1.00000000      -0.05017486      -0.05572375      -0.05137870      -0.00546178       0.00000000      -0.01479449
2
Lattice="20.0 0.0 0.0 0.0 20.0 0.0 0.0 0.0 20.0" Properties=species:S:1:pos:R:3:quaternions:R:4:c_diameter\[1\]:R:1:c_diameter\[2\]:R:1:c_diameter\[3\]:R:1:forces:R:3:torques:R:3 energy=-0.04077038748409335 pbc="F F F"
X       10.00000000      10.00000000      10.00000000      -0.07840275       0.59445210      -0.53235609       0.59755896       1.00000000       2.00000000       1.00000000       0.04861521       0.04813476       0.03899493      -0.01949688      -0.00000000      -0.01340217
X       11.97895682      11.52665813      11.99430553      -0.24140917      -0.26784551       0.71024344      -0.60459462       1.00000000       2.00000000       1.00000000      -0.04861521      -0.04813476      -0.03899493      -0.00157949       0.00000000       0.05743837
2
Lattice="20.0 0.0 0.0 0.0 20.0 0.0 0.0 0.0 20.0" Properties=species:S:1:pos:R:3:quaternions:R:4:c_diameter\[1\]:R:1:c_diameter\[2\]:R:1:c_diameter\[3\]:R:1:forces:R:3:torques:R:3 energy=-0.06254458139000497 pbc="F F F"
X       10.00000000      10.00000000      10.00000000       0.70468197       0.39053686       0.17798890       0.56499932       1.00000000       2.00000000       1.00000000       0.10803239       0.08562902       0.07837246      -0.07465719      -0.00000000       0.01585971
X       11.95047663      11.16810450      11.47840446      -0.11865386       0.26827099       0.77645064       0.55774218       1.00000000       2.00000000       1.00000000      -0.10803239      -0.08562902      -0.07837246      -0.08100528       0.00000000      -0.02788103
2
Lattice="20.0 0.0 0.0 0.0 20.0 0.0 0.0 0.0 20.0" Properties=species:S:1:pos:R:3:quaternions:R:4:c_diameter\[1\]:R:1:c_diameter\[2\]:R:1:c_diameter\[3\]:R:1:forces:R:3:torques:R:3 energy=-0.043917445499736724 pbc="F F F"
X       10.00000000      10.00000000      10.00000000      -0.34431435      -0.35775349       0.82860247      -0.25860786       1.00000000       2.00000000       1.00000000       0.01842287       0.08706715       0.04698817       0.00802291      -0.00000000       0.01943987
X       11.01142008      11.92503313      11.43587209       0.62722873       0.61952759      -0.30478498      -0.36038286       1.00000000       2.00000000       1.00000000      -0.01842287      -0.08706715      -0.04698817       0.04658171      -0.00000000       0.02699405
2
Lattice="20.0 0.0 0.0 0.0 20.0 0.0 0.0 0.0 20.0" Properties=species:S:1:pos:R:3:quaternions:R:4:c_diameter\[1\]:R:1:c_diameter\[2\]:R:1:c_diameter\[3\]:R:1:forces:R:3:torques:R:3 energy=-0.09156726771461128 pbc="F F F"
X       10.00000000      10.00000000      10.00000000       0.22042830      -0.19767402       0.82841795       0.47545771       1.00000000       2.00000000       1.00000000       0.16642515       0.14092402       0.13979643       0.03815519       0.00000000      -0.13564748
X       11.49507823      11.70815636      11.31914972      -0.06340704       0.90798719      -0.40408312      -0.09086060       1.00000000       2.00000000       1.00000000      -0.16642515      -0.14092402      -0.13979643      -0.14156943      -0.00000000       0.01067397
2
Lattice="20.0 0.0 0.0 0.0 20.0 0.0 0.0 0.0 20.0" Properties=species:S:1:pos:R:3:quaternions:R:4:c_diameter\[1\]:R:1:c_diameter\[2\]:R:1:c_diameter\[3\]:R:1:forces:R:3:torques:R:3 energy=-0.06208108598426588 pbc="F F F"
X       10.00000000      10.00000000      10.00000000      -0.23481950       0.84146353      -0.43161421       0.22474008       1.00000000       2.00000000       1.00000000       0.07186187       0.09094913       0.11983756      -0.07562273       0.00000000      -0.03662114
X       11.04746026      11.63919576      11.52219983       0.72639879      -0.46544250       0.48646075      -0.13807253       1.00000000       2.00000000       1.00000000      -0.07186187      -0.09094913      -0.11983756       0.03826893       0.00000000       0.05278309
2
Lattice="20.0 0.0 0.0 0.0 20.0 0.0 0.0 0.0 20.0" Properties=species:S:1:pos:R:3:quaternions:R:4:c_diameter\[1\]:R:1:c_diameter\[2\]:R:1:c_diameter\[3\]:R:1:forces:R:3:torques:R:3 energy=-0.024307657504388253 pbc="F F F"
X       10.00000000      10.00000000      10.00000000      -0.09413148       0.80104923      -0.52265122      -0.27621568       1.00000000       2.00000000       1.00000000       0.01433517       0.03396643       0.02739571      -0.01034592      -0.00000000       0.01348092
X       11.35069733      11.80863384      11.93326718       0.44495222       0.61520633      -0.56900351       0.31586976       1.00000000       2.00000000       1.00000000      -0.01433517      -0.03396643      -0.02739571       0.00720903      -0.00000000       0.02834345
2
Lattice="20.0 0.0 0.0 0.0 20.0 0.0 0.0 0.0 20.0" Properties=species:S:1:pos:R:3:quaternions:R:4:c_diameter\[1\]:R:1:c_diameter\[2\]:R:1:c_diameter\[3\]:R:1:forces:R:3:torques:R:3 energy=-0.06436004222074639 pbc="F F F"
X       10.00000000      10.00000000      10.00000000       0.27098656       0.74564842      -0.14136418       0.59210716       1.00000000       2.00000000       1.00000000       0.10638540       0.09941051       0.05796189       0.09025252      -0.00000000      -0.04307313
X       11.39701307      11.71509248      11.65104377      -0.27082615      -0.46444799       0.68275980      -0.49475279       1.00000000       2.00000000       1.00000000      -0.10638540      -0.09941051      -0.05796189      -0.00546937       0.00000000       0.09786390
2
Lattice="20.0 0.0 0.0 0.0 20.0 0.0 0.0 0.0 20.0" Properties=species:S:1:pos:R:3:quaternions:R:4:c_diameter\[1\]:R:1:c_diameter\[2\]:R:1:c_diameter\[3\]:R:1:forces:R:3:torques:R:3 energy=-0.034320999222748824 pbc="F F F"
X       10.00000000      10.00000000      10.00000000      -0.24619180       0.69033720      -0.66814473       0.12808887       1.00000000       2.00000000       1.00000000       0.01272497       0.05001874       0.04486411      -0.03580081       0.00000000      -0.00330605
X       11.42630708      11.70126829      11.63681600       0.58063728      -0.42047524      -0.25577544       0.64856754       1.00000000       2.00000000       1.00000000      -0.01272497      -0.05001874      -0.04486411       0.02320177      -0.00000000      -0.02824718
2
Lattice="20.0 0.0 0.0 0.0 20.0 0.0 0.0 0.0 20.0" Properties=species:S:1:pos:R:3:quaternions:R:4:c_diameter\[1\]:R:1:c_diameter\[2\]:R:1:c_diameter\[3\]:R:1:forces:R:3:torques:R:3 energy=-0.3382790525988214 pbc="F F F"
X       10.00000000      10.00000000      10.00000000      -0.10807514       0.26275935      -0.53660597       0.79456360       1.00000000       2.00000000       1.00000000       0.49489314       0.65615809       1.04959887      -0.23577040       0.00000000      -0.01122895
X       11.01195097      11.38881368      11.67199026      -0.15177583       0.61591146      -0.05547666       0.77106388       1.00000000       2.00000000       1.00000000      -0.49489314      -0.65615809      -1.04959887       0.29126949      -0.00000000      -0.54319131
2
Lattice="20.0 0.0 0.0 0.0 20.0 0.0 0.0 0.0 20.0" Properties=species:S:1:pos:R:3:quaternions:R:4:c_diameter\[1\]:R:1:c_diameter\[2\]:R:1:c_diameter\[3\]:R:1:forces:R:3:torques:R:3 energy=-0.08791905342818301 pbc="F F F"
X       10.00000000      10.00000000      10.00000000       0.75811616       0.19856741       0.48835616       0.38384781       1.00000000       2.00000000       1.00000000       0.04665376       0.12882154       0.15985919      -0.05129035      -0.00000000       0.10828372
X       11.47947167      11.70350418      11.61595787      -0.26496253       0.63959571       0.71503581      -0.09713898       1.00000000       2.00000000       1.00000000      -0.04665376      -0.12882154      -0.15985919       0.11424744       0.00000000       0.06573186
2
Lattice="20.0 0.0 0.0 0.0 20.0 0.0 0.0 0.0 20.0" Properties=species:S:1:pos:R:3:quaternions:R:4:c_diameter\[1\]:R:1:c_diameter\[2\]:R:1:c_diameter\[3\]:R:1:forces:R:3:torques:R:3 energy=-0.0918172705205101 pbc="F F F"
X       10.00000000      10.00000000      10.00000000       0.53162899       0.67330289       0.46344544       0.22192830       1.00000000       2.00000000       1.00000000       0.15998934       0.13868141       0.20775818      -0.01600490      -0.00000000       0.05104264
X       11.22862186      11.15805161      11.23393498       0.01999129      -0.05346262       0.19494512       0.97915193       1.00000000       2.00000000       1.00000000      -0.15998934      -0.13868141      -0.20775818       0.04660714      -0.00000000       0.05368484
2
Lattice="20.0 0.0 0.0 0.0 20.0 0.0 0.0 0.0 20.0" Properties=species:S:1:pos:R:3:quaternions:R:4:c_diameter\[1\]:R:1:c_diameter\[2\]:R:1:c_diameter\[3\]:R:1:forces:R:3:torques:R:3 energy=-0.03180200698825357 pbc="F F F"
X       10.00000000      10.00000000      10.00000000      -0.04705674       0.81520219       0.39663589      -0.41941748       1.00000000       2.00000000       1.00000000       0.05112821       0.02547522       0.03184178      -0.00538184       0.00000000      -0.00966182
X       11.94824714      11.64657963      11.12643807      -0.18556270       0.08922304       0.97854636       0.00726323       1.00000000       2.00000000       1.00000000      -0.05112821      -0.02547522      -0.03184178       0.01733851      -0.00000000      -0.03305880
2
Lattice="20.0 0.0 0.0 0.0 20.0 0.0 0.0 0.0 20.0" Properties=species:S:1:pos:R:3:quaternions:R:4:c_diameter\[1\]:R:1:c_diameter\[2\]:R:1:c_diameter\[3\]:R:1:forces:R:3:torques:R:3 energy=-0.017280811891114814 pbc="F F F"
X       10.00000000      10.00000000      10.00000000       0.81525673       0.46564261      -0.09451876      -0.33105835       1.00000000       2.00000000       1.00000000       0.01775362       0.01852673       0.01390963       0.01125131      -0.00000000      -0.01031953
X       11.88945445      11.75738756      11.67657726      -0.13014045       0.81901422       0.07329117      -0.55399239       1.00000000       2.00000000       1.00000000      -0.01775362      -0.01852673      -0.01390963      -0.00799687      -0.00000000       0.00069930
2
Lattice="20.0 0.0 0.0 0.0 20.0 0.0 0.0 0.0 20.0" Properties=species:S:1:pos:R:3:quaternions:R:4:c_diameter\[1\]:R:1:c_diameter\[2\]:R:1:c_diameter\[3\]:R:1:forces:R:3:torques:R:3 energy=-0.05185779906721488 pbc="F F F"
X       10.00000000      10.00000000      10.00000000       0.97344427       0.01179673       0.12428967      -0.19188320       1.00000000       2.00000000       1.00000000       0.06657803       0.07124116       0.07473347      -0.01465354       0.00000000       0.03110052
X       11.40160966      11.50864365      11.89478014       0.35931854       0.06700327       0.67483183       0.64109497       1.00000000       2.00000000       1.00000000      -0.06657803      -0.07124116      -0.07473347      -0.04013261      -0.00000000      -0.03188973
2
Lattice="20.0 0.0 0.0 0.0 20.0 0.0 0.0 0.0 20.0" Properties=species:S:1:pos:R:3:quaternions:R:4:c_diameter\[1\]:R:1:c_diameter\[2\]:R:1:c_diameter\[3\]:R:1:forces:R:3:torques:R:3 energy=-0.03024957662549458 pbc="F F F"
X       10.00000000      10.00000000      10.00000000       0.04763206       0.77354167       0.32638573       0.54114400       1.00000000       2.00000000       1.00000000       0.04211422       0.02876860       0.03800615       0.00097123       0.00000000       0.01137461
X       11.78147730      11.24384924      11.36395100       0.22511214       0.11609255       0.94138774      -0.22279176       1.00000000       2.00000000       1.00000000      -0.04211422      -0.02876860      -0.03800615       0.01864280       0.00000000       0.00241334
2
Lattice="20.0 0.0 0.0 0.0 20.0 0.0 0.0 0.0 20.0" Properties=species:S:1:pos:R:3:quaternions:R:4:c_diameter\[1\]:R:1:c_diameter\[2\]:R:1:c_diameter\[3\]:R:1:forces:R:3:torques:R:3 energy=-0.03619732693530231 pbc="F F F"
X       10.00000000      10.00000000      10.00000000      -0.46882433      -0.08675040       0.67268624      -0.56583684       1.00000000       2.00000000       1.00000000       0.04818124       0.05377339       0.04320445       0.00552023      -0.00000000      -0.00579062
X       11.37345127      11.58560262      11.14989822      -0.02639141       0.74041282       0.33358209       0.58293683       1.00000000       2.00000000       1.00000000      -0.04818124      -0.05377339      -0.04320445       0.00701716       0.00000000      -0.00010843
2
Lattice="20.0 0.0 0.0 0.0 20.0 0.0 0.0 0.0 20.0" Properties=species:S:1:pos:R:3:quaternions:R:4:c_diameter\[1\]:R:1:c_diameter\[2\]:R:1:c_diameter\[3\]:R:1:forces:R:3:torques:R:3 energy=-0.15452352164059502 pbc="F F F"
X       10.00000000      10.00000000      10.00000000       0.74840944      -0.27178393       0.00791613       0.60494144       1.00000000       2.00000000       1.00000000       0.29718852       0.30179909       0.32256620      -0.03545134      -0.00000000      -0.22439514
X       11.42012939      11.23772083      11.44737667       0.26350325      -0.34664123       0.88898794       0.14179681       1.00000000       2.00000000       1.00000000      -0.29718852      -0.30179909      -0.32256620       0.12991423      -0.00000000      -0.08841126
2
Lattice="20.0 0.0 0.0 0.0 20.0 0.0 0.0 0.0 20.0" Properties=species:S:1:pos:R:3:quaternions:R:4:c_diameter\[1\]:R:1:c_diameter\[2\]:R:1:c_diameter\[3\]:R:1:forces:R:3:torques:R:3 energy=-0.029301919031261923 pbc="F F F"
X       10.00000000      10.00000000      10.00000000       0.65456456      -0.44754845      -0.11290052       0.59874794       1.00000000       2.00000000       1.00000000       0.02740276       0.03106268       0.04194637       0.01254592      -0.00000000      -0.03433152
X       11.79290900      11.06991019      11.96473479      -0.44651181       0.81559598      -0.36599809       0.03841615       1.00000000       2.00000000       1.00000000      -0.02740276      -0.03106268      -0.04194637      -0.00247698      -0.00000000      -0.00507347
2
Lattice="20.0 0.0 0.0 0.0 20.0 0.0 0.0 0.0 20.0" Properties=species:S:1:pos:R:3:quaternions:R:4:c_diameter\[1\]:R:1:c_diameter\[2\]:R:1:c_diameter\[3\]:R:1:forces:R:3:torques:R:3 energy=-0.07853284189781089 pbc="F F F"
X       10.00000000      10.00000000      10.00000000      -0.29284805      -0.32075186       0.18035515       0.88251362       1.00000000       2.00000000       1.00000000       0.12700352       0.08393378       0.12103584       0.08490626       0.00000000       0.09398102
X       11.56425724      11.83504677      11.50145704       0.11743342      -0.02111166       0.92333931       0.36497700       1.00000000       2.00000000       1.00000000      -0.12700352      -0.08393378      -0.12103584       0.02709045      -0.00000000      -0.11903823
2
Lattice="20.0 0.0 0.0 0.0 20.0 0.0 0.0 0.0 20.0" Properties=species:S:1:pos:R:3:quaternions:R:4:c_diameter\[1\]:R:1:c_diameter\[2\]:R:1:c_diameter\[3\]:R:1:forces:R:3:torques:R:3 energy=-0.01974215640166535 pbc="F F F"
X       10.00000000      10.00000000      10.00000000      -0.12010006       0.55354027       0.58798918      -0.57744080       1.00000000       2.00000000       1.00000000       0.01482717       0.01886551       0.02431471       0.00768914       0.00000000      -0.00391822
X       11.87971841      11.42736814      11.71462183       0.56308048       0.55966672       0.37748059       0.47667803       1.00000000       2.00000000       1.00000000      -0.01482717      -0.01886551      -0.02431471      -0.01088143       0.00000000       0.01186648
2
Lattice="20.0 0.0 0.0 0.0 20.0 0.0 0.0 0.0 20.0" Properties=species:S:1:pos:R:3:quaternions:R:4:c_diameter\[1\]:R:1:c_diameter\[2\]:R:1:c_diameter\[3\]:R:1:forces:R:3:torques:R:3 energy=-0.03308867554458927 pbc="F F F"
X       10.00000000      10.00000000      10.00000000       0.86734650       0.02368136      -0.39757772      -0.29846475       1.00000000       2.00000000       1.00000000       0.04859056       0.03417039       0.04487162      -0.01782270      -0.00000000       0.00663299
X       11.42597934      11.29085651      11.52373842      -0.40356356       0.86021650       0.06762763       0.30428691       1.00000000       2.00000000       1.00000000      -0.04859056      -0.03417039      -0.04487162      -0.00364839      -0.00000000       0.00272189
2
Lattice="20.0 0.0 0.0 0.0 20.0 0.0 0.0 0.0 20.0" Properties=species:S:1:pos:R:3:quaternions:R:4:c_diameter\[1\]:R:1:c_diameter\[2\]:R:1:c_diameter\[3\]:R:1:forces:R:3:torques:R:3 energy=-0.02933156008459113 pbc="F F F"
X       10.00000000      10.00000000      10.00000000       0.67194888      -0.22569253      -0.60655855      -0.36004766       1.00000000       2.00000000       1.00000000       0.04266198       0.03537085       0.02290002      -0.03366290      -0.00000000       0.00721170
X       11.82123027      11.47325089      11.57525384       0.36687514       0.15902884       0.34402199       0.84956538       1.00000000       2.00000000       1.00000000      -0.04266198      -0.03537085      -0.02290002      -0.02256213      -0.00000000      -0.01798184
2
Lattice="20.0 0.0 0.0 0.0 20.0 0.0 0.0 0.0 20.0" Properties=species:S:1:pos:R:3:quaternions:R:4:c_diameter\[1\]:R:1:c_diameter\[2\]:R:1:c_diameter\[3\]:R:1:forces:R:3:torques:R:3 energy=-0.03273041318640784 pbc="F F F"
X       10.00000000      10.00000000      10.00000000       0.96977800       0.22488165      -0.08815577       0.03445912       1.00000000       2.00000000       1.00000000       0.05621226       0.02745700       0.03948868      -0.01216746       0.00000000       0.00885624
X       11.78393785      11.10475027      11.24778721       0.76066964      -0.23272106      -0.33402002      -0.50562163       1.00000000       2.00000000       1.00000000      -0.05621226      -0.02745700      -0.03948868      -0.00515183       0.00000000       0.00302978
2
Lattice="20.0 0.0 0.0 0.0 20.0 0.0 0.0 0.0 20.0" Properties=species:S:1:pos:R:3:quaternions:R:4:c_diameter\[1\]:R:1:c_diameter\[2\]:R:1:c_diameter\[3\]:R:1:forces:R:3:torques:R:3 energy=-0.0803409338603632 pbc="F F F"
X       10.00000000      10.00000000      10.00000000       0.84581879       0.43901223       0.17974796      -0.24402766       1.00000000       2.00000000       1.00000000       0.12444438       0.15488560       0.10565845       0.04652198       0.00000000      -0.08401678
X       11.30878806      11.11173952      11.52235895       0.87150473       0.37414736       0.28836825      -0.13167008       1.00000000       2.00000000       1.00000000      -0.12444438      -0.15488560      -0.10565845       0.00951662      -0.00000000      -0.04741617
2
Lattice="20.0 0.0 0.0 0.0 20.0 0.0 0.0 0.0 20.0" Properties=species:S:1:pos:R:3:quaternions:R:4:c_diameter\[1\]:R:1:c_diameter\[2\]:R:1:c_diameter\[3\]:R:1:forces:R:3:torques:R:3 energy=-0.054485523487508396 pbc="F F F"
X       10.00000000      10.00000000      10.00000000      -0.42805712       0.76790526       0.37680506       0.29173027       1.00000000       2.00000000       1.00000000       0.04462101       0.09767410       0.09135149       0.03111159      -0.00000000       0.05812028
X       11.15075816      11.51133000      11.59664816      -0.42870248       0.54795492      -0.05344331       0.71631236       1.00000000       2.00000000       1.00000000      -0.04462101      -0.09767410      -0.09135149       0.00148584      -0.00000000      -0.05970179
2
Lattice="20.0 0.0 0.0 0.0 20.0 0.0 0.0 0.0 20.0" Properties=species:S:1:pos:R:3:quaternions:R:4:c_diameter\[1\]:R:1:c_diameter\[2\]:R:1:c_diameter\[3\]:R:1:forces:R:3:torques:R:3 energy=-0.06531463884719171 pbc="F F F"
X       10.00000000      10.00000000      10.00000000      -0.44135416       0.12297780       0.70885999      -0.53628396       1.00000000       2.00000000       1.00000000       0.07611155       0.13920143       0.07873756       0.03159569      -0.00000000      -0.04033171
X       11.39351816      11.62463107      11.26336124      -0.02597763       0.36612702       0.70339447       0.60869729       1.00000000       2.00000000       1.00000000      -0.07611155      -0.13920143      -0.07873756      -0.08912013       0.00000000       0.04326527
2
Lattice="20.0 0.0 0.0 0.0 20.0 0.0 0.0 0.0 20.0" Properties=species:S:1:pos:R:3:quaternions:R:4:c_diameter\[1\]:R:1:c_diameter\[2\]:R:1:c_diameter\[3\]:R:1:forces:R:3:torques:R:3 energy=-0.04553978525540548 pbc="F F F"
X       10.00000000      10.00000000      10.00000000      -0.33587167       0.04569747       0.84262702       0.41842761       1.00000000       2.00000000       1.00000000       0.08436447       0.03091194       0.05317167      -0.01729996       0.00000000      -0.04981536
X       11.63163460      11.13829766      11.67865830       0.16067720      -0.42369068      -0.58079201       0.67627634       1.00000000       2.00000000       1.00000000      -0.08436447      -0.03091194      -0.05317167      -0.02031562      -0.00000000       0.00993085
2
Lattice="20.0 0.0 0.0 0.0 20.0 0.0 0.0 0.0 20.0" Properties=species:S:1:pos:R:3:quaternions:R:4:c_diameter\[1\]:R:1:c_diameter\[2\]:R:1:c_diameter\[3\]:R:1:forces:R:3:torques:R:3 energy=-0.031374717573240105 pbc="F F F"
X       10.00000000      10.00000000      10.00000000       0.52658670       0.40371067      -0.27369374       0.69628721       1.00000000       2.00000000       1.00000000       0.05005012       0.02718668       0.01807478       0.02749068       0.00000000       0.00708425
X       11.93209007      11.42367766      11.66583946       0.50408479       0.72793274      -0.27964946       0.37122586       1.00000000       2.00000000       1.00000000      -0.05005012      -0.02718668      -0.01807478       0.02893923      -0.00000000       0.00027462
2
Lattice="20.0 0.0 0.0 0.0 20.0 0.0 0.0 0.0 20.0" Properties=species:S:1:pos:R:3:quaternions:R:4:c_diameter\[1\]:R:1:c_diameter\[2\]:R:1:c_diameter\[3\]:R:1:forces:R:3:torques:R:3 energy=-0.02367056809825612 pbc="F F F"
X       10.00000000      10.00000000      10.00000000      -0.54699791       0.05212290       0.56088401       0.61926216       1.00000000       2.00000000       1.00000000       0.01989484       0.03535807       0.01762973       0.00056798      -0.00000000       0.00493960
X       11.80428171      11.99955927      11.17659358      -0.26499060       0.65641015       0.69026955      -0.14977865       1.00000000       2.00000000       1.00000000      -0.01989484      -0.03535807      -0.01762973       0.01827876       0.00000000       0.01842377
2
Lattice="20.0 0.0 0.0 0.0 20.0 0.0 0.0 0.0 20.0" Properties=species:S:1:pos:R:3:quaternions:R:4:c_diameter\[1\]:R:1:c_diameter\[2\]:R:1:c_diameter\[3\]:R:1:forces:R:3:torques:R:3 energy=-0.7433792951237406 pbc="F F F"
X       10.00000000      10.00000000      10.00000000       0.21899530       0.47436738       0.53284453       0.66565258       1.00000000       2.00000000       1.00000000       0.79933298       2.87215748       2.25242471      -1.04333365       0.00000000       0.41933773
X       11.04799043      11.21596487      11.21966386       0.66037017      -0.51462385      -0.45417536       0.30462809       1.00000000       2.00000000       1.00000000      -0.79933298      -2.87215748      -2.25242471       1.15669465       0.00000000      -1.16657943
2
Lattice="20.0 0.0 0.0 0.0 20.0 0.0 0.0 0.0 20.0" Properties=species:S:1:pos:R:3:quaternions:R:4:c_diameter\[1\]:R:1:c_diameter\[2\]:R:1:c_diameter\[3\]:R:1:forces:R:3:torques:R:3 energy=-0.12001918196454305 pbc="F F F"
X       10.00000000      10.00000000      10.00000000      -0.18407967       0.78871251       0.53956664      -0.23003281       1.00000000       2.00000000       1.00000000       0.20122571       0.19526842       0.25638250       0.14390206      -0.00000000       0.04119083
X       11.61035647      11.42102127      11.18370920      -0.24149427       0.16813451      -0.08885740       0.95158587       1.00000000       2.00000000       1.00000000      -0.20122571      -0.19526842      -0.25638250       0.20874416      -0.00000000       0.01035732
2
Lattice="20.0 0.0 0.0 0.0 20.0 0.0 0.0 0.0 20.0" Properties=species:S:1:pos:R:3:quaternions:R:4:c_diameter\[1\]:R:1:c_diameter\[2\]:R:1:c_diameter\[3\]:R:1:forces:R:3:torques:R:3 energy=-0.12889638830191358 pbc="F F F"
X       10.00000000      10.00000000      10.00000000       0.45582997      -0.07991343       0.83325184      -0.30252975       1.00000000       2.00000000       1.00000000       0.31128612       0.21993407       0.21375373      -0.06526705      -0.00000000      -0.02132040
X       11.28725654      11.00402534      11.57180121       0.57630193       0.80170675       0.09281075      -0.12856335       1.00000000       2.00000000       1.00000000      -0.31128612      -0.21993407      -0.21375373       0.00312823       0.00000000      -0.24406907
2
Lattice="20.0 0.0 0.0 0.0 20.0 0.0 0.0 0.0 20.0" Properties=species:S:1:pos:R:3:quaternions:R:4:c_diameter\[1\]:R:1:c_diameter\[2\]:R:1:c_diameter\[3\]:R:1:forces:R:3:torques:R:3 energy=-0.03975725992125982 pbc="F F F"
X       10.00000000      10.00000000      10.00000000      -0.43619688       0.83025432       0.01324566       0.34674862       1.00000000       2.00000000       1.00000000       0.06256302       0.02230559       0.06277073      -0.01100526      -0.00000000      -0.00096805
X       11.60502660      11.08455583      11.61579367       0.73424548       0.03685854       0.67667442       0.04045691       1.00000000       2.00000000       1.00000000      -0.06256302      -0.02230559      -0.06277073       0.03577791       0.00000000       0.02612130
2
Lattice="20.0 0.0 0.0 0.0 20.0 0.0 0.0 0.0 20.0" Properties=species:S:1:pos:R:3:quaternions:R:4:c_diameter\[1\]:R:1:c_diameter\[2\]:R:1:c_diameter\[3\]:R:1:forces:R:3:torques:R:3 energy=-0.05170244305113382 pbc="F F F"
X       10.00000000      10.00000000      10.00000000       0.59403737       0.48591735      -0.31823679      -0.55653327       1.00000000       2.00000000       1.00000000       0.05935282       0.08574046       0.06070283       0.06826285       0.00000000       0.01175275
X       11.40310627      11.86189872      11.63078909      -0.19350876      -0.64388898      -0.35543408       0.64932886       1.00000000       2.00000000       1.00000000      -0.05935282      -0.08574046      -0.06070283      -0.06887014      -0.00000000      -0.00991927
2
Lattice="20.0 0.0 0.0 0.0 20.0 0.0 0.0 0.0 20.0" Properties=species:S:1:pos:R:3:quaternions:R:4:c_diameter\[1\]:R:1:c_diameter\[2\]:R:1:c_diameter\[3\]:R:1:forces:R:3:torques:R:3 energy=-0.018812582023414418 pbc="F F F"
X       10.00000000      10.00000000      10.00000000       0.52832980      -0.40275650       0.15086759       0.73204767       1.00000000       2.00000000       1.00000000       0.01208588       0.02308148       0.01971442       0.00300623      -0.00000000      -0.01565597
X       11.26678995      11.75987703      11.99731704       0.25520461       0.44867140       0.18916286       0.83533346       1.00000000       2.00000000       1.00000000      -0.01208588      -0.02308148      -0.01971442       0.00261500      -0.00000000       0.00189799
2
Lattice="20.0 0.0 0.0 0.0 20.0 0.0 0.0 0.0 20.0" Properties=species:S:1:pos:R:3:quaternions:R:4:c_diameter\[1\]:R:1:c_diameter\[2\]:R:1:c_diameter\[3\]:R:1:forces:R:3:torques:R:3 energy=-0.027274667865068 pbc="F F F"
X       10.00000000      10.00000000      10.00000000       0.90647966       0.04216188       0.38525068      -0.16762730       1.00000000       2.00000000       1.00000000       0.03237208       0.03300783       0.03041207       0.00369632      -0.00000000       0.01649499
X       11.25503840      11.62860320      11.82598504       0.71019827       0.60451037      -0.26563485       0.24417977       1.00000000       2.00000000       1.00000000      -0.03237208      -0.03300783      -0.03041207       0.02940940      -0.00000000      -0.00238986
2
Lattice="20.0 0.0 0.0 0.0 20.0 0.0 0.0 0.0 20.0" Properties=species:S:1:pos:R:3:quaternions:R:4:c_diameter\[1\]:R:1:c_diameter\[2\]:R:1:c_diameter\[3\]:R:1:forces:R:3:torques:R:3 energy=-0.059099752950880866 pbc="F F F"
X       10.00000000      10.00000000      10.00000000      -0.10444215       0.73019705       0.67273274       0.05774734       1.00000000       2.00000000       1.00000000       0.09291375       0.07730181       0.09224570       0.06060869      -0.00000000       0.06489419
X       11.98431728      11.16089988      11.20808756      -0.21198144       0.75953050       0.09852247       0.60701780       1.00000000       2.00000000       1.00000000      -0.09291375      -0.07730181      -0.09224570       0.01645103       0.00000000      -0.03945633
2
Lattice="20.0 0.0 0.0 0.0 20.0 0.0 0.0 0.0 20.0" Properties=species:S:1:pos:R:3:quaternions:R:4:c_diameter\[1\]:R:1:c_diameter\[2\]:R:1:c_diameter\[3\]:R:1:forces:R:3:torques:R:3 energy=-0.470523504660431 pbc="F F F"
X       10.00000000      10.00000000      10.00000000       0.18668165       0.65927798       0.65224555       0.32415775       1.00000000       2.00000000       1.00000000       0.38017653       1.40736402       1.45434817      -0.07988010      -0.00000000       0.69782039
X       11.00932857      11.42508914      11.37022732       0.63695283       0.08320696       0.62887281       0.43804873       1.00000000       2.00000000       1.00000000      -0.38017653      -1.40736402      -1.45434817      -0.47349625      -0.00000000       0.47204921
2
Lattice="20.0 0.0 0.0 0.0 20.0 0.0 0.0 0.0 20.0" Properties=species:S:1:pos:R:3:quaternions:R:4:c_diameter\[1\]:R:1:c_diameter\[2\]:R:1:c_diameter\[3\]:R:1:forces:R:3:torques:R:3 energy=-0.06901043358926905 pbc="F F F"
X       10.00000000      10.00000000      10.00000000       0.08467591      -0.36828533       0.76508685       0.52138087       1.00000000       2.00000000       1.00000000       0.13904621       0.10689116       0.07828703      -0.01701617       0.00000000      -0.05548568
X       11.22213559      11.61087734      11.11829025       0.08543247       0.97615875       0.19344099       0.04894854       1.00000000       2.00000000       1.00000000      -0.13904621      -0.10689116      -0.07828703      -0.04609116      -0.00000000      -0.07245953
2
Lattice="20.0 0.0 0.0 0.0 20.0 0.0 0.0 0.0 20.0" Properties=species:S:1:pos:R:3:quaternions:R:4:c_diameter\[1\]:R:1:c_diameter\[2\]:R:1:c_diameter\[3\]:R:1:forces:R:3:torques:R:3 energy=-0.15116575126564855 pbc="F F F"
X       10.00000000      10.00000000      10.00000000       0.70955592       0.27093385       0.28009193       0.58708922       1.00000000       2.00000000       1.00000000       0.08238058       0.29255914       0.34502250      -0.20922368      -0.00000000      -0.03607598
X       11.17814706      11.57746429      11.33940437       0.83143167       0.18654386       0.29342203       0.43338929       1.00000000       2.00000000       1.00000000      -0.08238058      -0.29255914      -0.34502250      -0.19243169      -0.00000000       0.10923807
2
Lattice="20.0 0.0 0.0 0.0 20.0 0.0 0.0 0.0 20.0" Properties=species:S:1:pos:R:3:quaternions:R:4:c_diameter\[1\]:R:1:c_diameter\[2\]:R:1:c_diameter\[3\]:R:1:forces:R:3:torques:R:3 energy=-0.10782368965993958 pbc="F F F"
X       10.00000000      10.00000000      10.00000000       0.70339462       0.62284282      -0.15485687       0.30548679       1.00000000       2.00000000       1.00000000       0.17376861       0.25571636       0.14520382       0.11837286      -0.00000000      -0.02202633
X       11.41199460      11.26876229      11.34229990       0.74588035       0.28289949       0.00686619      -0.60297864       1.00000000       2.00000000       1.00000000      -0.17376861      -0.25571636      -0.14520382       0.12978982       0.00000000      -0.13426596
2
Lattice="20.0 0.0 0.0 0.0 20.0 0.0 0.0 0.0 20.0" Properties=species:S:1:pos:R:3:quaternions:R:4:c_diameter\[1\]:R:1:c_diameter\[2\]:R:1:c_diameter\[3\]:R:1:forces:R:3:torques:R:3 energy=-0.03977383057581076 pbc="F F F"
X       10.00000000      10.00000000      10.00000000       0.82436946       0.48988410       0.28214700      -0.02866419       1.00000000       2.00000000       1.00000000       0.05247020       0.05041043       0.04206578       0.00400993      -0.00000000      -0.01719598
X       11.78801564      11.42247888      11.83653206      -0.43578983       0.56908079       0.65340143       0.24351768       1.00000000       2.00000000       1.00000000      -0.05247020      -0.05041043      -0.04206578      -0.00456156       0.00000000       0.02430982
2
Lattice="20.0 0.0 0.0 0.0 20.0 0.0 0.0 0.0 20.0" Properties=species:S:1:pos:R:3:quaternions:R:4:c_diameter\[1\]:R:1:c_diameter\[2\]:R:1:c_diameter\[3\]:R:1:forces:R:3:torques:R:3 energy=-0.06954481743647548 pbc="F F F"
X       10.00000000      10.00000000      10.00000000      -0.37482831       0.65390335       0.25794469      -0.60446562       1.00000000       2.00000000       1.00000000       0.10198913       0.13176512       0.11774383       0.02004316      -0.00000000      -0.02559296
X       11.21470040      11.39095465      11.13020681       0.47624394       0.27424328       0.78694167      -0.28054439       1.00000000       2.00000000       1.00000000      -0.10198913      -0.13176512      -0.11774383       0.02080844       0.00000000       0.02731455
2
Lattice="20.0 0.0 0.0 0.0 20.0 0.0 0.0 0.0 20.0" Properties=species:S:1:pos:R:3:quaternions:R:4:c_diameter\[1\]:R:1:c_diameter\[2\]:R:1:c_diameter\[3\]:R:1:forces:R:3:torques:R:3 energy=-0.08331333848284153 pbc="F F F"
X       10.00000000      10.00000000      10.00000000       0.89129094       0.36809734      -0.04969151       0.26006839       1.00000000       2.00000000       1.00000000       0.15657605       0.10467251       0.17216600      -0.03405280       0.00000000      -0.00133126
X       11.12599989      11.27848491      11.38275588       0.21028610       0.55553355       0.00646579       0.80443796       1.00000000       2.00000000       1.00000000      -0.15657605      -0.10467251      -0.17216600       0.10523273      -0.00000000      -0.01717664
2
Lattice="20.0 0.0 0.0 0.0 20.0 0.0 0.0 0.0 20.0" Properties=species:S:1:pos:R:3:quaternions:R:4:c_diameter\[1\]:R:1:c_diameter\[2\]:R:1:c_diameter\[3\]:R:1:forces:R:3:torques:R:3 energy=-0.11880841330115784 pbc="F F F"
X       10.00000000      10.00000000      10.00000000       0.85777534       0.30995190      -0.10610591      -0.39609698       1.00000000       2.00000000       1.00000000       0.14098974       0.15815215       0.28946745       0.15813294       0.00000000      -0.03891291
X       11.31448374      11.14016881      11.91303021       0.30237597       0.92921954      -0.20223277      -0.06497479       1.00000000       2.00000000       1.00000000      -0.14098974      -0.15815215      -0.28946745      -0.14363124       0.00000000      -0.01835091
2
Lattice="20.0 0.0 0.0 0.0 20.0 0.0 0.0 0.0 20.0" Properties=species:S:1:pos:R:3:quaternions:R:4:c_diameter\[1\]:R:1:c_diameter\[2\]:R:1:c_diameter\[3\]:R:1:forces:R:3:torques:R:3 energy=-0.02250796684126198 pbc="F F F"
X       10.00000000      10.00000000      10.00000000       0.73841136       0.47892252      -0.45224103       0.14442971       1.00000000       2.00000000       1.00000000       0.02705054       0.02428268       0.02107251       0.01717898       0.00000000       0.01373690
X       11.55953457      11.27890527      11.95571589       0.63596026       0.58380583      -0.04931972       0.50228764       1.00000000       2.00000000       1.00000000      -0.02705054      -0.02428268      -0.02107251       0.01388318       0.00000000      -0.01043051
2
Lattice="20.0 0.0 0.0 0.0 20.0 0.0 0.0 0.0 20.0" Properties=species:S:1:pos:R:3:quaternions:R:4:c_diameter\[1\]:R:1:c_diameter\[2\]:R:1:c_diameter\[3\]:R:1:forces:R:3:torques:R:3 energy=-0.09488787976347864 pbc="F F F"
X       10.00000000      10.00000000      10.00000000      -0.02521066       0.43870752      -0.47994607       0.75931015       1.00000000       2.00000000       1.00000000       0.09776028       0.18829255       0.13867670      -0.02828596      -0.00000000       0.06855338
X       11.45950273      11.73580297      11.55166133      -0.64353213      -0.20169889       0.22923795       0.70187885       1.00000000       2.00000000       1.00000000      -0.09776028      -0.18829255      -0.13867670       0.13240291      -0.00000000      -0.02385125
2
Lattice="20.0 0.0 0.0 0.0 20.0 0.0 0.0 0.0 20.0" Properties=species:S:1:pos:R:3:quaternions:R:4:c_diameter\[1\]:R:1:c_diameter\[2\]:R:1:c_diameter\[3\]:R:1:forces:R:3:torques:R:3 energy=-0.07857596015611217 pbc="F F F"
X       10.00000000      10.00000000      10.00000000      -0.12989418      -0.68034540       0.69594921       0.18950551       1.00000000       2.00000000       1.00000000       0.09688095       0.12813146       0.16258277      -0.02959619      -0.00000000       0.09880988
X       11.33853549      11.48266449      11.21000799      -0.06180310      -0.07672452       0.18412312       0.97795317       1.00000000       2.00000000       1.00000000      -0.09688095      -0.12813146      -0.16258277       0.07324054      -0.00000000       0.06454290
2
Lattice="20.0 0.0 0.0 0.0 20.0 0.0 0.0 0.0 20.0" Properties=species:S:1:pos:R:3:quaternions:R:4:c_diameter\[1\]:R:1:c_diameter\[2\]:R:1:c_diameter\[3\]:R:1:forces:R:3:torques:R:3 energy=-0.0424883267204846 pbc="F F F"
X       10.00000000      10.00000000      10.00000000      -0.35175655      -0.09087208       0.63103692       0.68542103       1.00000000       2.00000000       1.00000000       0.06985444       0.05153669       0.05315309      -0.02002779       0.00000000      -0.00175078
X       11.42175591      11.27350449      11.40275428      -0.03938380       0.77579302       0.43481905      -0.45555076       1.00000000       2.00000000       1.00000000      -0.06985444      -0.05153669      -0.05315309      -0.01408205      -0.00000000       0.00970173
2
Lattice="20.0 0.0 0.0 0.0 20.0 0.0 0.0 0.0 20.0" Properties=species:S:1:pos:R:3:quaternions:R:4:c_diameter\[1\]:R:1:c_diameter\[2\]:R:1:c_diameter\[3\]:R:1:forces:R:3:torques:R:3 energy=-0.13892389431604563 pbc="F F F"
X       10.00000000      10.00000000      10.00000000       0.21653147       0.74712333       0.08265105       0.62296842       1.00000000       2.00000000       1.00000000       0.28593011       0.20963223       0.18780477       0.12733407      -0.00000000      -0.15178271
X       11.02535054      11.80999431      11.32906652       0.91228913      -0.32973349       0.23862616      -0.04540842       1.00000000       2.00000000       1.00000000      -0.28593011      -0.20963223      -0.18780477       0.12216004      -0.00000000       0.15075210
2
Lattice="20.0 0.0 0.0 0.0 20.0 0.0 0.0 0.0 20.0" Properties=species:S:1:pos:R:3:quaternions:R:4:c_diameter\[1\]:R:1:c_diameter\[2\]:R:1:c_diameter\[3\]:R:1:forces:R:3:torques:R:3 energy=-0.09667466535263569 pbc="F F F"
X       10.00000000      10.00000000      10.00000000       0.28665597      -0.28739622       0.70043950      -0.58704026       1.00000000       2.00000000       1.00000000       0.14021118       0.20826045       0.08529179      -0.15437905      -0.00000000      -0.02153924
X       11.37730142      11.55259576      11.53512396       0.77266492      -0.55146379       0.24793625       0.19340175       1.00000000       2.00000000       1.00000000      -0.14021118      -0.20826045      -0.08529179       0.14814573      -0.00000000       0.05870732
2
Lattice="20.0 0.0 0.0 0.0 20.0 0.0 0.0 0.0 20.0" Properties=species:S:1:pos:R:3:quaternions:R:4:c_diameter\[1\]:R:1:c_diameter\[2\]:R:1:c_diameter\[3\]:R:1:forces:R:3:torques:R:3 energy=-0.052966714424566526 pbc="F F F"
X       10.00000000      10.00000000      10.00000000       0.39688866      -0.42056602       0.39718047       0.71263686       1.00000000       2.00000000       1.00000000       0.03718811       0.09583547       0.04794518       0.01385338       0.00000000      -0.06228621
X       11.20380574      11.68913386      11.86631548       0.66636311       0.37984929       0.29393516      -0.57033047       1.00000000       2.00000000       1.00000000      -0.03718811      -0.09583547      -0.04794518       0.02382488       0.00000000      -0.04988941
2
Lattice="20.0 0.0 0.0 0.0 20.0 0.0 0.0 0.0 20.0" Properties=species:S:1:pos:R:3:quaternions:R:4:c_diameter\[1\]:R:1:c_diameter\[2\]:R:1:c_diameter\[3\]:R:1:forces:R:3:torques:R:3 energy=-0.06330636869722772 pbc="F F F"
X       10.00000000      10.00000000      10.00000000       0.89852991      -0.34186515       0.27382698       0.02812483       1.00000000       2.00000000       1.00000000       0.09711517       0.11323439       0.07073370       0.04863051      -0.00000000       0.06561631
X       11.29522424      11.92248476      11.16765592       0.61842354      -0.57515870       0.34289812      -0.41129756       1.00000000       2.00000000       1.00000000      -0.09711517      -0.11323439      -0.07073370      -0.02337369       0.00000000      -0.03278503
2
Lattice="20.0 0.0 0.0 0.0 20.0 0.0 0.0 0.0 20.0" Properties=species:S:1:pos:R:3:quaternions:R:4:c_diameter\[1\]:R:1:c_diameter\[2\]:R:1:c_diameter\[3\]:R:1:forces:R:3:torques:R:3 energy=-0.15263633838554128 pbc="F F F"
X       10.00000000      10.00000000      10.00000000       0.44763187       0.89363979      -0.01440937      -0.02874036       1.00000000       2.00000000       1.00000000       0.18648398       0.21476115       0.29862352       0.05221285       0.00000000      -0.19668593
X       11.02692527      11.88251970      11.90485475       0.04003848       0.87500802      -0.28114952       0.39206227       1.00000000       2.00000000       1.00000000      -0.18648398      -0.21476115      -0.29862352      -0.16126917      -0.00000000      -0.17371271
2
Lattice="20.0 0.0 0.0 0.0 20.0 0.0 0.0 0.0 20.0" Properties=species:S:1:pos:R:3:quaternions:R:4:c_diameter\[1\]:R:1:c_diameter\[2\]:R:1:c_diameter\[3\]:R:1:forces:R:3:torques:R:3 energy=-0.0786010242921442 pbc="F F F"
X       10.00000000      10.00000000      10.00000000       0.12260208       0.54399513       0.04049286       0.82909490       1.00000000       2.00000000       1.00000000       0.07789733       0.08782745       0.17859790       0.09726730      -0.00000000      -0.03911266
X       11.13545265      11.57562772      11.64857395      -0.13491892       0.45583541       0.87960026      -0.01772995       1.00000000       2.00000000       1.00000000      -0.07789733      -0.08782745      -0.17859790       0.12645483       0.00000000       0.01787436
2
Lattice="20.0 0.0 0.0 0.0 20.0 0.0 0.0 0.0 20.0" Properties=species:S:1:pos:R:3:quaternions:R:4:c_diameter\[1\]:R:1:c_diameter\[2\]:R:1:c_diameter\[3\]:R:1:forces:R:3:torques:R:3 energy=-0.05609770179847969 pbc="F F F"
X       10.00000000      10.00000000      10.00000000      -0.31527703       0.62766523      -0.37328821       0.60604675       1.00000000       2.00000000       1.00000000       0.04675893       0.07822309       0.10511028      -0.03841255      -0.00000000      -0.05715234
X       11.29915067      11.50563293      11.67366411      -0.26646407       0.72161859      -0.52787958      -0.36000926       1.00000000       2.00000000       1.00000000      -0.04675893      -0.07822309      -0.10511028      -0.00641781      -0.00000000      -0.00442045
2
Lattice="20.0 0.0 0.0 0.0 20.0 0.0 0.0 0.0 20.0" Properties=species:S:1:pos:R:3:quaternions:R:4:c_diameter\[1\]:R:1:c_diameter\[2\]:R:1:c_diameter\[3\]:R:1:forces:R:3:torques:R:3 energy=-0.09637783334569952 pbc="F F F"
X       10.00000000      10.00000000      10.00000000       0.01218028       0.20584453       0.97394958       0.09434977       1.00000000       2.00000000       1.00000000       0.11371449       0.09140401       0.16241940       0.15204343      -0.00000000      -0.03380360
X       11.39224026      11.91819816      11.94225715       0.91287080      -0.34698638       0.08248564       0.19865417       1.00000000       2.00000000       1.00000000      -0.11371449      -0.09140401      -0.16241940       0.02674657       0.00000000       0.06047268
2
Lattice="20.0 0.0 0.0 0.0 20.0 0.0 0.0 0.0 20.0" Properties=species:S:1:pos:R:3:quaternions:R:4:c_diameter\[1\]:R:1:c_diameter\[2\]:R:1:c_diameter\[3\]:R:1:forces:R:3:torques:R:3 energy=-0.05724968168258451 pbc="F F F"
X       10.00000000      10.00000000      10.00000000       0.49199828      -0.29333257       0.63387258      -0.51971073       1.00000000       2.00000000       1.00000000       0.05719999       0.10939861       0.08604478      -0.04933534       0.00000000      -0.05106196
X       11.20254508      11.30011731      11.59435767      -0.41109198       0.57707193       0.32643980       0.62564242       1.00000000       2.00000000       1.00000000      -0.05719999      -0.10939861      -0.08604478      -0.03063945       0.00000000       0.02988512
2
Lattice="20.0 0.0 0.0 0.0 20.0 0.0 0.0 0.0 20.0" Properties=species:S:1:pos:R:3:quaternions:R:4:c_diameter\[1\]:R:1:c_diameter\[2\]:R:1:c_diameter\[3\]:R:1:forces:R:3:torques:R:3 energy=-0.02022443464659196 pbc="F F F"
X       10.00000000      10.00000000      10.00000000      -0.53087030      -0.46479157       0.67384448       0.21926956       1.00000000       2.00000000       1.00000000       0.01192458       0.01773003       0.02830470       0.00869751      -0.00000000       0.01218912
X       11.60862370      11.64463588      11.99805708      -0.50357412       0.29305454       0.78708516      -0.20255640       1.00000000       2.00000000       1.00000000      -0.01192458      -0.01773003      -0.02830470       0.00656579      -0.00000000      -0.02252858
2
Lattice="20.0 0.0 0.0 0.0 20.0 0.0 0.0 0.0 20.0" Properties=species:S:1:pos:R:3:quaternions:R:4:c_diameter\[1\]:R:1:c_diameter\[2\]:R:1:c_diameter\[3\]:R:1:forces:R:3:torques:R:3 energy=-0.1471327333254755 pbc="F F F"
X       10.00000000      10.00000000      10.00000000       0.43072063       0.49294734       0.13596205       0.74363767       1.00000000       2.00000000       1.00000000       0.33865061       0.34178460       0.13127240       0.01773558       0.00000000      -0.01995302
X       11.39247118      11.61588461      11.04321330       0.57840923      -0.11941551       0.69633224       0.40780401       1.00000000       2.00000000       1.00000000      -0.33865061      -0.34178460      -0.13127240       0.09158645      -0.00000000      -0.20208900
2
Lattice="20.0 0.0 0.0 0.0 20.0 0.0 0.0 0.0 20.0" Properties=species:S:1:pos:R:3:quaternions:R:4:c_diameter\[1\]:R:1:c_diameter\[2\]:R:1:c_diameter\[3\]:R:1:forces:R:3:torques:R:3 energy=-0.2068648068209119 pbc="F F F"
X       10.00000000      10.00000000      10.00000000       0.54967821      -0.20324821       0.70324010       0.40248900       1.00000000       2.00000000       1.00000000       0.45315901       0.25888905       0.40402530       0.34506471       0.00000000      -0.08764367
X       11.75618460      11.15479163      11.62535033       0.78011678      -0.08980579       0.14522742       0.60188183       1.00000000       2.00000000       1.00000000      -0.45315901      -0.25888905      -0.40402530      -0.26511225      -0.00000000      -0.12097393
2
Lattice="20.0 0.0 0.0 0.0 20.0 0.0 0.0 0.0 20.0" Properties=species:S:1:pos:R:3:quaternions:R:4:c_diameter\[1\]:R:1:c_diameter\[2\]:R:1:c_diameter\[3\]:R:1:forces:R:3:torques:R:3 energy=-0.12185235108245877 pbc="F F F"
X       10.00000000      10.00000000      10.00000000      -0.07032640       0.77188443       0.28103607      -0.56592168       1.00000000       2.00000000       1.00000000       0.24913317       0.23501871       0.22401268      -0.10288152      -0.00000000      -0.00166828
X       11.24298812      11.04181496      11.57746673      -0.35727216      -0.49975648       0.72400631      -0.31371155       1.00000000       2.00000000       1.00000000      -0.24913317      -0.23501871      -0.22401268       0.06107773      -0.00000000       0.20804423
2
Lattice="20.0 0.0 0.0 0.0 20.0 0.0 0.0 0.0 20.0" Properties=species:S:1:pos:R:3:quaternions:R:4:c_diameter\[1\]:R:1:c_diameter\[2\]:R:1:c_diameter\[3\]:R:1:forces:R:3:torques:R:3 energy=-0.019772599035752875 pbc="F F F"
X       10.00000000      10.00000000      10.00000000       0.54784217      -0.26652742       0.12257122       0.78345925       1.00000000       2.00000000       1.00000000       0.01821094       0.02675741       0.01645209      -0.00044869      -0.00000000      -0.01837239
X       11.66140937      11.69865783      11.50458628      -0.10226435       0.32299307       0.70108836      -0.62744927       1.00000000       2.00000000       1.00000000      -0.01821094      -0.02675741      -0.01645209      -0.00320372       0.00000000       0.00134144
2
Lattice="20.0 0.0 0.0 0.0 20.0 0.0 0.0 0.0 20.0" Properties=species:S:1:pos:R:3:quaternions:R:4:c_diameter\[1\]:R:1:c_diameter\[2\]:R:1:c_diameter\[3\]:R:1:forces:R:3:torques:R:3 energy=-0.11444792887164176 pbc="F F F"
X       10.00000000      10.00000000      10.00000000      -0.29582006       0.91275866      -0.27811688       0.04486778       1.00000000       2.00000000       1.00000000       0.23566760       0.14595138       0.18797113      -0.15732971      -0.00000000      -0.05957668
X       11.57250494      11.72014505      11.09107753       0.66385533      -0.06289713       0.70420957       0.24378050       1.00000000       2.00000000       1.00000000      -0.23566760      -0.14595138      -0.18797113       0.18036944       0.00000000       0.01733422
2
Lattice="20.0 0.0 0.0 0.0 20.0 0.0 0.0 0.0 20.0" Properties=species:S:1:pos:R:3:quaternions:R:4:c_diameter\[1\]:R:1:c_diameter\[2\]:R:1:c_diameter\[3\]:R:1:forces:R:3:torques:R:3 energy=-0.6664457100316491 pbc="F F F"
X       10.00000000      10.00000000      10.00000000      -0.46224727      -0.02332884       0.01658613       0.88628897       1.00000000       2.00000000       1.00000000       2.09265292       1.87950270       1.46087916       1.21216020       0.00000000      -0.18649898
X       11.53315091      11.23402254      11.10024443       0.61713100       0.77253191      -0.08089530      -0.12569695       1.00000000       2.00000000       1.00000000      -2.09265292      -1.87950270      -1.46087916       0.87724914       0.00000000      -1.10254322
2
Lattice="20.0 0.0 0.0 0.0 20.0 0.0 0.0 0.0 20.0" Properties=species:S:1:pos:R:3:quaternions:R:4:c_diameter\[1\]:R:1:c_diameter\[2\]:R:1:c_diameter\[3\]:R:1:forces:R:3:torques:R:3 energy=-0.19938383397330303 pbc="F F F"
X       10.00000000      10.00000000      10.00000000      -0.44240702       0.43833859       0.38979977       0.67837412       1.00000000       2.00000000       1.00000000       0.47194919       0.47462657       0.28063751      -0.06272320      -0.00000000       0.01994865
X       11.57681854      11.28381356      11.17834501       0.08975729       0.35321222       0.81581044       0.44904128       1.00000000       2.00000000       1.00000000      -0.47194919      -0.47462657      -0.28063751      -0.20659000       0.00000000       0.05673292
2
Lattice="20.0 0.0 0.0 0.0 20.0 0.0 0.0 0.0 20.0" Properties=species:S:1:pos:R:3:quaternions:R:4:c_diameter\[1\]:R:1:c_diameter\[2\]:R:1:c_diameter\[3\]:R:1:forces:R:3:torques:R:3 energy=-0.2041197714991035 pbc="F F F"
X       10.00000000      10.00000000      10.00000000       0.80098919       0.29006651      -0.15822159      -0.49924309       1.00000000       2.00000000       1.00000000       0.21850204       0.35314510       0.62544728       0.30345815      -0.00000000      -0.04976593
X       11.20846763      11.20236857      11.58672244       0.01193055       0.30034743       0.94213705       0.14841450       1.00000000       2.00000000       1.00000000      -0.21850204      -0.35314510      -0.62544728       0.39974886       0.00000000       0.00668632
2
Lattice="20.0 0.0 0.0 0.0 20.0 0.0 0.0 0.0 20.0" Properties=species:S:1:pos:R:3:quaternions:R:4:c_diameter\[1\]:R:1:c_diameter\[2\]:R:1:c_diameter\[3\]:R:1:forces:R:3:torques:R:3 energy=-0.02493885702109592 pbc="F F F"
X       10.00000000      10.00000000      10.00000000       0.68039104      -0.65083202       0.32498898       0.08870102       1.00000000       2.00000000       1.00000000       0.03686597       0.03147390       0.01287839       0.01036838      -0.00000000       0.00804462
X       11.96646899      11.40350616      11.04419949       0.85796950       0.19061745       0.26796177      -0.39465150       1.00000000       2.00000000       1.00000000      -0.03686597      -0.03147390      -0.01287839       0.00140562      -0.00000000      -0.01731536
2
Lattice="20.0 0.0 0.0 0.0 20.0 0.0 0.0 0.0 20.0" Properties=species:S:1:pos:R:3:quaternions:R:4:c_diameter\[1\]:R:1:c_diameter\[2\]:R:1:c_diameter\[3\]:R:1:forces:R:3:torques:R:3 energy=-0.035785910737338875 pbc="F F F"
X       10.00000000      10.00000000      10.00000000       0.78994767      -0.36952098      -0.31126704      -0.37755762       1.00000000       2.00000000       1.00000000       0.03875853       0.05910964       0.03548912      -0.01580983      -0.00000000       0.04117623
X       11.20907585      11.78393922      11.62557865      -0.50586654       0.58599616       0.32421220      -0.54368557       1.00000000       2.00000000       1.00000000      -0.03875853      -0.05910964      -0.03548912       0.02736108      -0.00000000      -0.01267718
2
Lattice="20.0 0.0 0.0 0.0 20.0 0.0 0.0 0.0 20.0" Properties=species:S:1:pos:R:3:quaternions:R:4:c_diameter\[1\]:R:1:c_diameter\[2\]:R:1:c_diameter\[3\]:R:1:forces:R:3:torques:R:3 energy=-0.036194451054348355 pbc="F F F"
X       10.00000000      10.00000000      10.00000000       0.45196944       0.71300534       0.51493307      -0.14896626       1.00000000       2.00000000       1.00000000       0.04667360       0.05150415       0.02850159       0.00026216       0.00000000       0.00162411
X       11.99431924      11.81581627      11.28291721       0.83066404      -0.39827672      -0.20693553       0.32947019       1.00000000       2.00000000       1.00000000      -0.04667360      -0.05150415      -0.02850159       0.02184562       0.00000000      -0.00559387
2
Lattice="20.0 0.0 0.0 0.0 20.0 0.0 0.0 0.0 20.0" Properties=species:S:1:pos:R:3:quaternions:R:4:c_diameter\[1\]:R:1:c_diameter\[2\]:R:1:c_diameter\[3\]:R:1:forces:R:3:torques:R:3 energy=-0.05483607362889254 pbc="F F F"
X       10.00000000      10.00000000      10.00000000       0.29126095       0.93828770       0.08213226       0.16744415       1.00000000       2.00000000       1.00000000       0.08848849       0.05103480       0.09811359      -0.02327811      -0.00000000      -0.07308825
X       11.32716887      11.31018946      11.62709870       0.74434129       0.40611669       0.10517258       0.51958061       1.00000000       2.00000000       1.00000000      -0.08848849      -0.05103480      -0.09811359      -0.02183651      -0.00000000       0.02004561
2
Lattice="20.0 0.0 0.0 0.0 20.0 0.0 0.0 0.0 20.0" Properties=species:S:1:pos:R:3:quaternions:R:4:c_diameter\[1\]:R:1:c_diameter\[2\]:R:1:c_diameter\[3\]:R:1:forces:R:3:torques:R:3 energy=-0.12168804400010819 pbc="F F F"
X       10.00000000      10.00000000      10.00000000       0.94805915      -0.07038153       0.30641543       0.04837236       1.00000000       2.00000000       1.00000000       0.23317373       0.17936227       0.17294101       0.01997571      -0.00000000       0.20499696
X       11.80559588      11.67489169      11.22192399       0.77832326      -0.07814958       0.26444693       0.56406859       1.00000000       2.00000000       1.00000000      -0.23317373      -0.17936227      -0.17294101      -0.07196010      -0.00000000      -0.09731495
2
Lattice="20.0 0.0 0.0 0.0 20.0 0.0 0.0 0.0 20.0" Properties=species:S:1:pos:R:3:quaternions:R:4:c_diameter\[1\]:R:1:c_diameter\[2\]:R:1:c_diameter\[3\]:R:1:forces:R:3:torques:R:3 energy=-0.021655690756249263 pbc="F F F"
X       10.00000000      10.00000000      10.00000000      -0.24912402       0.68499422      -0.55714275      -0.39788453       1.00000000       2.00000000       1.00000000       0.02382460       0.01792913       0.02523769      -0.00185936      -0.00000000       0.00758441
X       11.68411812      11.93122131      11.54646751       0.03383411       0.96730913      -0.10881367      -0.22655660       1.00000000       2.00000000       1.00000000      -0.02382460      -0.01792913      -0.02523769      -0.02211829       0.00000000      -0.01067908
2
Lattice="20.0 0.0 0.0 0.0 20.0 0.0 0.0 0.0 20.0" Properties=species:S:1:pos:R:3:quaternions:R:4:c_diameter\[1\]:R:1:c_diameter\[2\]:R:1:c_diameter\[3\]:R:1:forces:R:3:torques:R:3 energy=-0.11028670532963457 pbc="F F F"
X       10.00000000      10.00000000      10.00000000       0.19942805       0.70543303      -0.29016065       0.61514185       1.00000000       2.00000000       1.00000000       0.28137742       0.13135767       0.14859293       0.15799425      -0.00000000      -0.02612869
X       11.71913072      11.14039557      11.20360981       0.26537147       0.86579670       0.36409726       0.21773204       1.00000000       2.00000000       1.00000000      -0.28137742      -0.13135767      -0.14859293      -0.00461495      -0.00000000       0.03462491
2
Lattice="20.0 0.0 0.0 0.0 20.0 0.0 0.0 0.0 20.0" Properties=species:S:1:pos:R:3:quaternions:R:4:c_diameter\[1\]:R:1:c_diameter\[2\]:R:1:c_diameter\[3\]:R:1:forces:R:3:torques:R:3 energy=-0.04409259353950482 pbc="F F F"
X       10.00000000      10.00000000      10.00000000       0.62405442      -0.37197789      -0.41327956       0.54898864       1.00000000       2.00000000       1.00000000       0.03591187       0.07486800       0.06272742       0.02134308      -0.00000000      -0.04610610
X       11.16403853      11.48888161      11.85328030       0.33113760      -0.42990297       0.59376841       0.59411313       1.00000000       2.00000000       1.00000000      -0.03591187      -0.07486800      -0.06272742       0.00427971       0.00000000      -0.05656492
2
Lattice="20.0 0.0 0.0 0.0 20.0 0.0 0.0 0.0 20.0" Properties=species:S:1:pos:R:3:quaternions:R:4:c_diameter\[1\]:R:1:c_diameter\[2\]:R:1:c_diameter\[3\]:R:1:forces:R:3:torques:R:3 energy=-0.03881800967970017 pbc="F F F"
X       10.00000000      10.00000000      10.00000000       0.69164591      -0.38149897      -0.36759857       0.49087245       1.00000000       2.00000000       1.00000000       0.02098952       0.06684520       0.04075752       0.00805309      -0.00000000      -0.05059389
X       11.45271717      11.85841057      11.52466316      -0.23272539       0.70609654       0.52519615       0.41404779       1.00000000       2.00000000       1.00000000      -0.02098952      -0.06684520      -0.04075752      -0.02001310       0.00000000       0.04002086
2
Lattice="20.0 0.0 0.0 0.0 20.0 0.0 0.0 0.0 20.0" Properties=species:S:1:pos:R:3:quaternions:R:4:c_diameter\[1\]:R:1:c_diameter\[2\]:R:1:c_diameter\[3\]:R:1:forces:R:3:torques:R:3 energy=-0.18443316646808225 pbc="F F F"
X       10.00000000      10.00000000      10.00000000      -0.29020405       0.35445123      -0.41105672       0.78814866       1.00000000       2.00000000       1.00000000       0.40132603       0.30002772       0.27330005       0.04636187      -0.00000000      -0.09980743
X       11.80891818      11.14471821      11.58689401      -0.67076303       0.72767449       0.13129897      -0.05768332       1.00000000       2.00000000       1.00000000      -0.40132603      -0.30002772      -0.27330005       0.20595804      -0.00000000       0.26351258
2
Lattice="20.0 0.0 0.0 0.0 20.0 0.0 0.0 0.0 20.0" Properties=species:S:1:pos:R:3:quaternions:R:4:c_diameter\[1\]:R:1:c_diameter\[2\]:R:1:c_diameter\[3\]:R:1:forces:R:3:torques:R:3 energy=-0.049161151825935584 pbc="F F F"
X       10.00000000      10.00000000      10.00000000      -0.16784778       0.16220911      -0.16281330       0.95864861       1.00000000       2.00000000       1.00000000       0.08620517       0.03731860       0.05592103       0.05992583      -0.00000000       0.03599796
X       11.92996568      11.24592483      11.83268875       0.74486408       0.62349376       0.04592108      -0.23307570       1.00000000       2.00000000       1.00000000      -0.08620517      -0.03731860      -0.05592103       0.02082032       0.00000000      -0.06744411
2
Lattice="20.0 0.0 0.0 0.0 20.0 0.0 0.0 0.0 20.0" Properties=species:S:1:pos:R:3:quaternions:R:4:c_diameter\[1\]:R:1:c_diameter\[2\]:R:1:c_diameter\[3\]:R:1:forces:R:3:torques:R:3 energy=-0.03888850502276327 pbc="F F F"
X       10.00000000      10.00000000      10.00000000       0.04291397       0.27698328      -0.28360232       0.91706509       1.00000000       2.00000000       1.00000000       0.04953096       0.04574478       0.05049019       0.03369283       0.00000000       0.03214714
X       11.31211857      11.98702499      11.59896566       0.77126881       0.46862223       0.43034629       0.01843097       1.00000000       2.00000000       1.00000000      -0.04953096      -0.04574478      -0.05049019      -0.00595425      -0.00000000       0.01850260
2
Lattice="20.0 0.0 0.0 0.0 20.0 0.0 0.0 0.0 20.0" Properties=species:S:1:pos:R:3:quaternions:R:4:c_diameter\[1\]:R:1:c_diameter\[2\]:R:1:c_diameter\[3\]:R:1:forces:R:3:torques:R:3 energy=-0.05768010513427435 pbc="F F F"
X       10.00000000      10.00000000      10.00000000      -0.34765126       0.15250815       0.72628921      -0.57304786       1.00000000       2.00000000       1.00000000       0.09839641       0.06701771       0.09862647      -0.01269556      -0.00000000      -0.00418894
X       11.29871796      11.04437888      11.50190849      -0.45726336      -0.18046707       0.70923573       0.50529846       1.00000000       2.00000000       1.00000000      -0.09839641      -0.06701771      -0.09862647      -0.00553995       0.00000000      -0.02805377
2
Lattice="20.0 0.0 0.0 0.0 20.0 0.0 0.0 0.0 20.0" Properties=species:S:1:pos:R:3:quaternions:R:4:c_diameter\[1\]:R:1:c_diameter\[2\]:R:1:c_diameter\[3\]:R:1:forces:R:3:torques:R:3 energy=-0.03913399831346761 pbc="F F F"
X       10.00000000      10.00000000      10.00000000       0.88254997      -0.23886326      -0.40345853       0.03565252       1.00000000       2.00000000       1.00000000       0.06009581       0.03457124       0.05020450      -0.04775974      -0.00000000      -0.00261579
X       11.68794878      11.64612619      11.53963020      -0.00238187      -0.46783430       0.79019490       0.39587551       1.00000000       2.00000000       1.00000000      -0.06009581      -0.03457124      -0.05020450      -0.00329700       0.00000000      -0.00829844
2
Lattice="20.0 0.0 0.0 0.0 20.0 0.0 0.0 0.0 20.0" Properties=species:S:1:pos:R:3:quaternions:R:4:c_diameter\[1\]:R:1:c_diameter\[2\]:R:1:c_diameter\[3\]:R:1:forces:R:3:torques:R:3 energy=-0.026088606871138106 pbc="F F F"
X       10.00000000      10.00000000      10.00000000      -0.17595348      -0.00835751       0.96428770      -0.19778715       1.00000000       2.00000000       1.00000000       0.03135207       0.01338842       0.03503697       0.01311158      -0.00000000      -0.01813560
X       11.70791670      11.55427572      11.56452652       0.08961611      -0.31493526       0.17198437       0.92908886       1.00000000       2.00000000       1.00000000      -0.03135207      -0.01338842      -0.03503697       0.00211796       0.00000000       0.02119055
2
Lattice="20.0 0.0 0.0 0.0 20.0 0.0 0.0 0.0 20.0" Properties=species:S:1:pos:R:3:quaternions:R:4:c_diameter\[1\]:R:1:c_diameter\[2\]:R:1:c_diameter\[3\]:R:1:forces:R:3:torques:R:3 energy=-0.11163428743643115 pbc="F F F"
X       10.00000000      10.00000000      10.00000000      -0.14892693      -0.41421496       0.68172167      -0.58438199       1.00000000       2.00000000       1.00000000       0.21372663       0.20099855       0.14478981      -0.01472137      -0.00000000       0.18080425
X       11.93715873      11.34673849      11.16689581       0.13235724       0.77745208      -0.47899752      -0.38550124       1.00000000       2.00000000       1.00000000      -0.21372663      -0.20099855      -0.14478981      -0.07730964       0.00000000       0.15548947
2
Lattice="20.0 0.0 0.0 0.0 20.0 0.0 0.0 0.0 20.0" Properties=species:S:1:pos:R:3:quaternions:R:4:c_diameter\[1\]:R:1:c_diameter\[2\]:R:1:c_diameter\[3\]:R:1:forces:R:3:torques:R:3 energy=-0.10542526042132841 pbc="F F F"
X       10.00000000      10.00000000      10.00000000       0.44581849      -0.51469108       0.68580700       0.25691970       1.00000000       2.00000000       1.00000000       0.17457561       0.21462786       0.14264579       0.09238684      -0.00000000      -0.06010861
X       11.49116718      11.61542939      11.36443693       0.70175139      -0.45286674      -0.48065036       0.26726752       1.00000000       2.00000000       1.00000000      -0.17457561      -0.21462786      -0.14264579       0.09625897       0.00000000      -0.05258687
2
Lattice="20.0 0.0 0.0 0.0 20.0 0.0 0.0 0.0 20.0" Properties=species:S:1:pos:R:3:quaternions:R:4:c_diameter\[1\]:R:1:c_diameter\[2\]:R:1:c_diameter\[3\]:R:1:forces:R:3:torques:R:3 energy=-0.08629498272175148 pbc="F F F"
X       10.00000000      10.00000000      10.00000000       0.38772946      -0.06608207      -0.12681473       0.91061355       1.00000000       2.00000000       1.00000000       0.14335967       0.17357341       0.15243262       0.02748555      -0.00000000       0.03963314
X       11.09828804      11.48960098      11.01825493      -0.43643763       0.80196559      -0.40643021       0.03446562       1.00000000       2.00000000       1.00000000      -0.14335967      -0.17357341      -0.15243262      -0.05651896       0.00000000      -0.02287945
2
Lattice="20.0 0.0 0.0 0.0 20.0 0.0 0.0 0.0 20.0" Properties=species:S:1:pos:R:3:quaternions:R:4:c_diameter\[1\]:R:1:c_diameter\[2\]:R:1:c_diameter\[3\]:R:1:forces:R:3:torques:R:3 energy=-0.04810203115105701 pbc="F F F"
X       10.00000000      10.00000000      10.00000000       0.68596174      -0.29547684       0.01625897       0.66474474       1.00000000       2.00000000       1.00000000       0.03155913       0.08685398       0.07406511      -0.01809642      -0.00000000      -0.05981658
X       11.08226921      11.73573808      11.46620584      -0.22442429       0.95800239       0.15956694       0.08002223       1.00000000       2.00000000       1.00000000      -0.03155913      -0.08685398      -0.07406511      -0.02416142      -0.00000000      -0.00560516
2
Lattice="20.0 0.0 0.0 0.0 20.0 0.0 0.0 0.0 20.0" Properties=species:S:1:pos:R:3:quaternions:R:4:c_diameter\[1\]:R:1:c_diameter\[2\]:R:1:c_diameter\[3\]:R:1:forces:R:3:torques:R:3 energy=-0.05308863293855626 pbc="F F F"
X       10.00000000      10.00000000      10.00000000       0.00668373       0.81370310      -0.32730640      -0.48032605       1.00000000       2.00000000       1.00000000       0.09695459       0.03481183       0.06349205      -0.06359910       0.00000000       0.03790154
X       11.99688734      11.45756830      11.47562408       0.37439881       0.84454352      -0.27355117       0.26784610       1.00000000       2.00000000       1.00000000      -0.09695459      -0.03481183      -0.06349205       0.05748529      -0.00000000      -0.04783684
2
Lattice="20.0 0.0 0.0 0.0 20.0 0.0 0.0 0.0 20.0" Properties=species:S:1:pos:R:3:quaternions:R:4:c_diameter\[1\]:R:1:c_diameter\[2\]:R:1:c_diameter\[3\]:R:1:forces:R:3:torques:R:3 energy=-0.07819335071553478 pbc="F F F"
X       10.00000000      10.00000000      10.00000000      -0.54220037       0.73047033      -0.28020694      -0.30645706       1.00000000       2.00000000       1.00000000       0.09215895       0.16590311       0.09166364       0.09802747      -0.00000000       0.00383988
X       11.03833987      11.36701246      11.64013079       0.85832898       0.46860863      -0.04503881      -0.20408042       1.00000000       2.00000000       1.00000000      -0.09215895      -0.16590311      -0.09166364       0.09276502      -0.00000000      -0.01160857
2
Lattice="20.0 0.0 0.0 0.0 20.0 0.0 0.0 0.0 20.0" Properties=species:S:1:pos:R:3:quaternions:R:4:c_diameter\[1\]:R:1:c_diameter\[2\]:R:1:c_diameter\[3\]:R:1:forces:R:3:torques:R:3 energy=-0.028600925896977207 pbc="F F F"
X       10.00000000      10.00000000      10.00000000       0.98817973       0.00443134      -0.14047379      -0.06122333       1.00000000       2.00000000       1.00000000       0.03555599       0.03353396       0.02928015      -0.02055012      -0.00000000       0.01649003
X       11.81159056      11.65688171      11.60594874       0.58829906      -0.37150741       0.14687596       0.70307461       1.00000000       2.00000000       1.00000000      -0.03555599      -0.03353396      -0.02928015       0.00928568       0.00000000      -0.02971608
2
Lattice="20.0 0.0 0.0 0.0 20.0 0.0 0.0 0.0 20.0" Properties=species:S:1:pos:R:3:quaternions:R:4:c_diameter\[1\]:R:1:c_diameter\[2\]:R:1:c_diameter\[3\]:R:1:forces:R:3:torques:R:3 energy=-0.0351573516207611 pbc="F F F"
X       10.00000000      10.00000000      10.00000000      -0.16456921      -0.61582465      -0.38155408       0.66939784       1.00000000       2.00000000       1.00000000       0.03875021       0.03321911       0.05406847      -0.03819270       0.00000000       0.01802308
X       11.46046181      11.51074508      11.99221427      -0.65649637       0.11584070      -0.06957721       0.74212698       1.00000000       2.00000000       1.00000000      -0.03875021      -0.03321911      -0.05406847       0.02868465      -0.00000000      -0.02417779
2
Lattice="20.0 0.0 0.0 0.0 20.0 0.0 0.0 0.0 20.0" Properties=species:S:1:pos:R:3:quaternions:R:4:c_diameter\[1\]:R:1:c_diameter\[2\]:R:1:c_diameter\[3\]:R:1:forces:R:3:torques:R:3 energy=-0.04578209530436077 pbc="F F F"
X       10.00000000      10.00000000      10.00000000       0.20944742      -0.36718637       0.85390672      -0.30356098       1.00000000       2.00000000       1.00000000       0.06237690       0.08014738       0.04189554      -0.04590396       0.00000000       0.00737591
X       11.65327739      11.33121047      11.18762085      -0.45104762       0.78897680      -0.13205327      -0.39576961       1.00000000       2.00000000       1.00000000      -0.06237690      -0.08014738      -0.04189554       0.02900547      -0.00000000       0.01041760
2
Lattice="20.0 0.0 0.0 0.0 20.0 0.0 0.0 0.0 20.0" Properties=species:S:1:pos:R:3:quaternions:R:4:c_diameter\[1\]:R:1:c_diameter\[2\]:R:1:c_diameter\[3\]:R:1:forces:R:3:torques:R:3 energy=-0.0605257650241573 pbc="F F F"
X       10.00000000      10.00000000      10.00000000       0.57920991       0.65154631       0.31742165      -0.37315785       1.00000000       2.00000000       1.00000000       0.07825276       0.13053271       0.02376104      -0.02939528      -0.00000000      -0.06841884
X       11.43280045      11.74049177      11.00519604       0.13325910      -0.42993350       0.77233727      -0.44821238       1.00000000       2.00000000       1.00000000      -0.07825276      -0.13053271      -0.02376104      -0.07092207      -0.00000000       0.02834665
2
Lattice="20.0 0.0 0.0 0.0 20.0 0.0 0.0 0.0 20.0" Properties=species:S:1:pos:R:3:quaternions:R:4:c_diameter\[1\]:R:1:c_diameter\[2\]:R:1:c_diameter\[3\]:R:1:forces:R:3:torques:R:3 energy=-0.012637488583553872 pbc="F F F"
X       10.00000000      10.00000000      10.00000000      -0.44479817       0.73769659      -0.46042985      -0.21438912       1.00000000       2.00000000       1.00000000       0.01282466       0.01220486       0.00620123       0.00665087      -0.00000000       0.00171546
X       11.95106386      11.77439997      11.79519240       0.60375516       0.47999784      -0.49134890       0.40454671       1.00000000       2.00000000       1.00000000      -0.01282466      -0.01220486      -0.00620123       0.00598131      -0.00000000       0.00787339
2
Lattice="20.0 0.0 0.0 0.0 20.0 0.0 0.0 0.0 20.0" Properties=species:S:1:pos:R:3:quaternions:R:4:c_diameter\[1\]:R:1:c_diameter\[2\]:R:1:c_diameter\[3\]:R:1:forces:R:3:torques:R:3 energy=-0.18332823499183315 pbc="F F F"
X       10.00000000      10.00000000      10.00000000       0.71698787      -0.38578291      -0.55317461       0.17634568       1.00000000       2.00000000       1.00000000       0.17121990       0.30540003       0.36247755      -0.02275045       0.00000000      -0.18071644
X       11.66447547      11.64004929      11.59052411       0.11978534       0.79809089      -0.57598300       0.13017677       1.00000000       2.00000000       1.00000000      -0.17121990      -0.30540003      -0.36247755      -0.19149784      -0.00000000       0.22854699
2
Lattice="20.0 0.0 0.0 0.0 20.0 0.0 0.0 0.0 20.0" Properties=species:S:1:pos:R:3:quaternions:R:4:c_diameter\[1\]:R:1:c_diameter\[2\]:R:1:c_diameter\[3\]:R:1:forces:R:3:torques:R:3 energy=-0.01416808716065542 pbc="F F F"
X       10.00000000      10.00000000      10.00000000       0.66506635      -0.64567506       0.30631015      -0.21671308       1.00000000       2.00000000       1.00000000       0.01217169       0.01455109       0.01224110       0.00122114      -0.00000000       0.00582830
X       11.39332168      11.88952350      11.78226333       0.78522254       0.50672851       0.35587857       0.00149163       1.00000000       2.00000000       1.00000000      -0.01217169      -0.01455109      -0.01224110       0.00354114       0.00000000       0.00003145
2
Lattice="20.0 0.0 0.0 0.0 20.0 0.0 0.0 0.0 20.0" Properties=species:S:1:pos:R:3:quaternions:R:4:c_diameter\[1\]:R:1:c_diameter\[2\]:R:1:c_diameter\[3\]:R:1:forces:R:3:torques:R:3 energy=-0.013816728224711984 pbc="F F F"
X       10.00000000      10.00000000      10.00000000      -0.59804321      -0.20322836       0.74640510       0.20957571       1.00000000       2.00000000       1.00000000       0.01620252       0.00904025       0.00941798      -0.00408639      -0.00000000      -0.01065249
X       11.78167358      11.97518939      11.79675951      -0.22669044      -0.13650657       0.87151660       0.41283921       1.00000000       2.00000000       1.00000000      -0.01620252      -0.00904025      -0.00941798      -0.00919432      -0.00000000      -0.00904590
2
Lattice="20.0 0.0 0.0 0.0 20.0 0.0 0.0 0.0 20.0" Properties=species:S:1:pos:R:3:quaternions:R:4:c_diameter\[1\]:R:1:c_diameter\[2\]:R:1:c_diameter\[3\]:R:1:forces:R:3:torques:R:3 energy=-0.20523570532781568 pbc="F F F"
X       10.00000000      10.00000000      10.00000000       0.75108297      -0.31602857       0.30219790      -0.49464810       1.00000000       2.00000000       1.00000000       0.42741600       0.44294291       0.46656337      -0.00950986      -0.00000000      -0.15327613
X       11.23668696      11.56560156      11.15993355       0.14854326       0.93467006      -0.16858656       0.27550925       1.00000000       2.00000000       1.00000000      -0.42741600      -0.44294291      -0.46656337      -0.06703761      -0.00000000      -0.31110047
2
Lattice="20.0 0.0 0.0 0.0 20.0 0.0 0.0 0.0 20.0" Properties=species:S:1:pos:R:3:quaternions:R:4:c_diameter\[1\]:R:1:c_diameter\[2\]:R:1:c_diameter\[3\]:R:1:forces:R:3:torques:R:3 energy=-0.02116656483105396 pbc="F F F"
X       10.00000000      10.00000000      10.00000000      -0.44669133       0.08285573       0.39369987       0.79912590       1.00000000       2.00000000       1.00000000       0.02258979       0.02197838       0.02204273       0.00758598      -0.00000000       0.00381943
X       11.62957899      11.64709793      11.48174313      -0.25461929      -0.23806178       0.72846563       0.58977405       1.00000000       2.00000000       1.00000000      -0.02258979      -0.02197838      -0.02204273       0.00087026      -0.00000000      -0.00570964
2
Lattice="20.0 0.0 0.0 0.0 20.0 0.0 0.0 0.0 20.0" Properties=species:S:1:pos:R:3:quaternions:R:4:c_diameter\[1\]:R:1:c_diameter\[2\]:R:1:c_diameter\[3\]:R:1:forces:R:3:torques:R:3 energy=-0.04043799938428496 pbc="F F F"
X       10.00000000      10.00000000      10.00000000      -0.39601396       0.72671666       0.03134231      -0.56042261       1.00000000       2.00000000       1.00000000       0.06923955       0.05553051       0.03585006       0.01296132       0.00000000       0.00251284
X       11.49659823      11.55947436      11.21462607       0.02909490      -0.47198727      -0.37745154       0.79618581       1.00000000       2.00000000       1.00000000      -0.06923955      -0.05553051      -0.03585006      -0.04007380      -0.00000000       0.01817607
2
Lattice="20.0 0.0 0.0 0.0 20.0 0.0 0.0 0.0 20.0" Properties=species:S:1:pos:R:3:quaternions:R:4:c_diameter\[1\]:R:1:c_diameter\[2\]:R:1:c_diameter\[3\]:R:1:forces:R:3:torques:R:3 energy=-0.046194030281504664 pbc="F F F"
X       10.00000000      10.00000000      10.00000000      -0.02129991      -0.50574939       0.46086628       0.72894865       1.00000000       2.00000000       1.00000000       0.07188169       0.05714324       0.06153070      -0.00676185       0.00000000       0.04314492
X       11.66484693      11.41699480      11.11143988      -0.21437836       0.06065300       0.59057216       0.77562082       1.00000000       2.00000000       1.00000000      -0.07188169      -0.05714324      -0.06153070      -0.00739344      -0.00000000      -0.00811419
2
Lattice="20.0 0.0 0.0 0.0 20.0 0.0 0.0 0.0 20.0" Properties=species:S:1:pos:R:3:quaternions:R:4:c_diameter\[1\]:R:1:c_diameter\[2\]:R:1:c_diameter\[3\]:R:1:forces:R:3:torques:R:3 energy=-0.07347359390763776 pbc="F F F"
X       10.00000000      10.00000000      10.00000000       0.60956638      -0.38943604       0.65245911       0.22597679       1.00000000       2.00000000       1.00000000       0.10972664       0.14516074       0.09169020       0.11541639       0.00000000      -0.03035953
X       11.01248928      11.61648958      11.61283194       0.26244902      -0.21200581       0.81949284      -0.46325537       1.00000000       2.00000000       1.00000000      -0.10972664      -0.14516074      -0.09169020      -0.06843747      -0.00000000       0.00744067
2
Lattice="20.0 0.0 0.0 0.0 20.0 0.0 0.0 0.0 20.0" Properties=species:S:1:pos:R:3:quaternions:R:4:c_diameter\[1\]:R:1:c_diameter\[2\]:R:1:c_diameter\[3\]:R:1:forces:R:3:torques:R:3 energy=-0.025074773840718594 pbc="F F F"
X       10.00000000      10.00000000      10.00000000      -0.49295958       0.71886913      -0.26781429       0.41047965       1.00000000       2.00000000       1.00000000       0.02658476       0.02167649       0.03758436      -0.00821955       0.00000000      -0.01547291
X       11.61666975      11.13014286      11.70795761       0.10776771       0.29666853       0.23496561       0.91932859       1.00000000       2.00000000       1.00000000      -0.02658476      -0.02167649      -0.03758436      -0.00359981      -0.00000000       0.00200489
2
Lattice="20.0 0.0 0.0 0.0 20.0 0.0 0.0 0.0 20.0" Properties=species:S:1:pos:R:3:quaternions:R:4:c_diameter\[1\]:R:1:c_diameter\[2\]:R:1:c_diameter\[3\]:R:1:forces:R:3:torques:R:3 energy=-0.051942704463294784 pbc="F F F"
X       10.00000000      10.00000000      10.00000000      -0.00820981       0.43896545       0.88361770       0.16267051       1.00000000       2.00000000       1.00000000       0.07838173       0.06644191       0.06327171       0.02626070       0.00000000       0.02194086
X       11.92174814      11.73229862      11.20195125      -0.07485962       0.95702127       0.20272439       0.19341447       1.00000000       2.00000000       1.00000000      -0.07838173      -0.06644191      -0.06327171      -0.00515058       0.00000000      -0.03049612
2
Lattice="20.0 0.0 0.0 0.0 20.0 0.0 0.0 0.0 20.0" Properties=species:S:1:pos:R:3:quaternions:R:4:c_diameter\[1\]:R:1:c_diameter\[2\]:R:1:c_diameter\[3\]:R:1:forces:R:3:torques:R:3 energy=-0.031361758048727206 pbc="F F F"
X       10.00000000      10.00000000      10.00000000       0.66720404       0.52310787       0.34682522       0.40113488       1.00000000       2.00000000       1.00000000       0.02970556       0.03927553       0.04291872      -0.01158546      -0.00000000       0.02841550
X       11.78097596      11.25518231      11.53186167       0.77679238      -0.04901571       0.41810378      -0.46838050       1.00000000       2.00000000       1.00000000      -0.02970556      -0.03927553      -0.04291872      -0.01619549      -0.00000000      -0.02663950
2
Lattice="20.0 0.0 0.0 0.0 20.0 0.0 0.0 0.0 20.0" Properties=species:S:1:pos:R:3:quaternions:R:4:c_diameter\[1\]:R:1:c_diameter\[2\]:R:1:c_diameter\[3\]:R:1:forces:R:3:torques:R:3 energy=-0.035646556041664126 pbc="F F F"
X       10.00000000      10.00000000      10.00000000      -0.21745167       0.59633865       0.23699956       0.73547685       1.00000000       2.00000000       1.00000000       0.06804552       0.03239680       0.02839338       0.01507964      -0.00000000      -0.00924436
X       11.84294306      11.40352066      11.06521066      -0.54576434       0.16622234       0.72135377       0.39263234       1.00000000       2.00000000       1.00000000      -0.06804552      -0.03239680      -0.02839338      -0.03848338      -0.00000000      -0.00728092
2
Lattice="20.0 0.0 0.0 0.0 20.0 0.0 0.0 0.0 20.0" Properties=species:S:1:pos:R:3:quaternions:R:4:c_diameter\[1\]:R:1:c_diameter\[2\]:R:1:c_diameter\[3\]:R:1:forces:R:3:torques:R:3 energy=-0.05866465921465545 pbc="F F F"
X       10.00000000      10.00000000      10.00000000      -0.40880963      -0.53607988       0.62702649       0.39029583       1.00000000       2.00000000       1.00000000       0.05544535       0.08759076       0.09833831       0.02587742       0.00000000       0.06173156
X       11.65460108      11.21785935      11.43122634      -0.18345424      -0.47957563       0.79750807       0.31675328       1.00000000       2.00000000       1.00000000      -0.05544535      -0.08759076      -0.09833831      -0.00560488       0.00000000       0.04636775
2
Lattice="20.0 0.0 0.0 0.0 20.0 0.0 0.0 0.0 20.0" Properties=species:S:1:pos:R:3:quaternions:R:4:c_diameter\[1\]:R:1:c_diameter\[2\]:R:1:c_diameter\[3\]:R:1:forces:R:3:torques:R:3 energy=-0.04620027905639042 pbc="F F F"
X       10.00000000      10.00000000      10.00000000      -0.03937954      -0.11093097       0.94475438       0.30591294       1.00000000       2.00000000       1.00000000       0.07067823       0.05769556       0.04180610       0.01318103       0.00000000      -0.06352918
X       11.64964030      11.57778477      11.83589035       0.70793716      -0.55429335       0.07307708       0.43155949       1.00000000       2.00000000       1.00000000      -0.07067823      -0.05769556      -0.04180610       0.05951023      -0.00000000      -0.02777703
2
Lattice="20.0 0.0 0.0 0.0 20.0 0.0 0.0 0.0 20.0" Properties=species:S:1:pos:R:3:quaternions:R:4:c_diameter\[1\]:R:1:c_diameter\[2\]:R:1:c_diameter\[3\]:R:1:forces:R:3:torques:R:3 energy=-0.025979901255902434 pbc="F F F"
X       10.00000000      10.00000000      10.00000000       0.00476952       0.74375372       0.26493813       0.61369002       1.00000000       2.00000000       1.00000000       0.03326905       0.02554293       0.03232372      -0.00812112      -0.00000000       0.00215794
X       11.72706391      11.08109754      11.55387871       0.41618159       0.78106975       0.32276220       0.33548099       1.00000000       2.00000000       1.00000000      -0.03326905      -0.02554293      -0.03232372       0.00334982       0.00000000       0.00672523
2
Lattice="20.0 0.0 0.0 0.0 20.0 0.0 0.0 0.0 20.0" Properties=species:S:1:pos:R:3:quaternions:R:4:c_diameter\[1\]:R:1:c_diameter\[2\]:R:1:c_diameter\[3\]:R:1:forces:R:3:torques:R:3 energy=-0.0637425205519429 pbc="F F F"
X       10.00000000      10.00000000      10.00000000       0.82249168      -0.01156243      -0.06983512       0.56435521       1.00000000       2.00000000       1.00000000       0.08699596       0.06638840       0.10541190      -0.05831227      -0.00000000      -0.06472486
X       11.98944588      11.41980046      11.17973408      -0.19722479       0.13473684       0.93260975      -0.27053174       1.00000000       2.00000000       1.00000000      -0.08699596      -0.06638840      -0.10541190       0.02390224      -0.00000000      -0.07707120
2
Lattice="20.0 0.0 0.0 0.0 20.0 0.0 0.0 0.0 20.0" Properties=species:S:1:pos:R:3:quaternions:R:4:c_diameter\[1\]:R:1:c_diameter\[2\]:R:1:c_diameter\[3\]:R:1:forces:R:3:torques:R:3 energy=-0.10024131171351869 pbc="F F F"
X       10.00000000      10.00000000      10.00000000       0.20468302       0.94507013       0.19723442       0.16138741       1.00000000       2.00000000       1.00000000       0.19689793       0.18292512       0.16822398      -0.01864503      -0.00000000      -0.12479555
X       11.35468710      11.38882815      11.10062172       0.22210552      -0.59046856       0.77100631      -0.08697872       1.00000000       2.00000000       1.00000000      -0.19689793      -0.18292512      -0.16822398      -0.09935460      -0.00000000       0.03336804
2
Lattice="20.0 0.0 0.0 0.0 20.0 0.0 0.0 0.0 20.0" Properties=species:S:1:pos:R:3:quaternions:R:4:c_diameter\[1\]:R:1:c_diameter\[2\]:R:1:c_diameter\[3\]:R:1:forces:R:3:torques:R:3 energy=-0.012466013200897647 pbc="F F F"
X       10.00000000      10.00000000      10.00000000      -0.46004743       0.72079792      -0.13448969      -0.50071873       1.00000000       2.00000000       1.00000000       0.01405322       0.01147854       0.00701408       0.00406891      -0.00000000      -0.00080038
X       11.89601372      11.94239910      11.41930903       0.29014491       0.24011992      -0.16560201       0.91144628       1.00000000       2.00000000       1.00000000      -0.01405322      -0.01147854      -0.00701408       0.00530098      -0.00000000       0.00733728
2
Lattice="20.0 0.0 0.0 0.0 20.0 0.0 0.0 0.0 20.0" Properties=species:S:1:pos:R:3:quaternions:R:4:c_diameter\[1\]:R:1:c_diameter\[2\]:R:1:c_diameter\[3\]:R:1:forces:R:3:torques:R:3 energy=-0.09013711099557867 pbc="F F F"
X       10.00000000      10.00000000      10.00000000      -0.01050298       0.67493908       0.66722671       0.31488958       1.00000000       2.00000000       1.00000000       0.12396100       0.19606871       0.09029635      -0.03975114       0.00000000       0.10556000
X       11.71474151      11.40176951      11.05604598      -0.00234342      -0.41703269       0.90294321      -0.10378730       1.00000000       2.00000000       1.00000000      -0.12396100      -0.19606871      -0.09029635      -0.03806603       0.00000000       0.05890655
2
Lattice="20.0 0.0 0.0 0.0 20.0 0.0 0.0 0.0 20.0" Properties=species:S:1:pos:R:3:quaternions:R:4:c_diameter\[1\]:R:1:c_diameter\[2\]:R:1:c_diameter\[3\]:R:1:forces:R:3:torques:R:3 energy=-0.08097980842434396 pbc="F F F"
X       10.00000000      10.00000000      10.00000000       0.19576263       0.05310338       0.95917703      -0.19706965       1.00000000       2.00000000       1.00000000       0.11586606       0.16593948       0.12086978       0.09367398      -0.00000000      -0.00959840
X       11.28567142      11.62579737      11.20769139       0.78827308       0.51719743      -0.06681977      -0.32659990       1.00000000       2.00000000       1.00000000      -0.11586606      -0.16593948      -0.12086978       0.09344226      -0.00000000      -0.05340689
2
Lattice="20.0 0.0 0.0 0.0 20.0 0.0 0.0 0.0 20.0" Properties=species:S:1:pos:R:3:quaternions:R:4:c_diameter\[1\]:R:1:c_diameter\[2\]:R:1:c_diameter\[3\]:R:1:forces:R:3:torques:R:3 energy=-0.02096674206223882 pbc="F F F"
X       10.00000000      10.00000000      10.00000000       0.00381156      -0.26438326      -0.20409541       0.94256672       1.00000000       2.00000000       1.00000000       0.02367891       0.01980111       0.02055956      -0.00285597      -0.00000000       0.02124741
X       11.94000695      11.65698854      11.84581424      -0.48584801      -0.56590237       0.65904233       0.09679577       1.00000000       2.00000000       1.00000000      -0.02367891      -0.01980111      -0.02055956       0.01083807       0.00000000       0.01744163
2
Lattice="20.0 0.0 0.0 0.0 20.0 0.0 0.0 0.0 20.0" Properties=species:S:1:pos:R:3:quaternions:R:4:c_diameter\[1\]:R:1:c_diameter\[2\]:R:1:c_diameter\[3\]:R:1:forces:R:3:torques:R:3 energy=-0.06860636205613452 pbc="F F F"
X       10.00000000      10.00000000      10.00000000       0.77671040      -0.35026214       0.42344881       0.30777995       1.00000000       2.00000000       1.00000000       0.06382577       0.12733858       0.07927527       0.05774383       0.00000000       0.00584015
X       11.01746538      11.82818591      11.94095190       0.38028912      -0.17795390       0.43701016       0.79544624       1.00000000       2.00000000       1.00000000      -0.06382577      -0.12733858      -0.07927527      -0.05737731       0.00000000      -0.06990267
2
Lattice="20.0 0.0 0.0 0.0 20.0 0.0 0.0 0.0 20.0" Properties=species:S:1:pos:R:3:quaternions:R:4:c_diameter\[1\]:R:1:c_diameter\[2\]:R:1:c_diameter\[3\]:R:1:forces:R:3:torques:R:3 energy=-0.2372715974811824 pbc="F F F"
X       10.00000000      10.00000000      10.00000000      -0.37740155       0.79676078       0.40591088      -0.24078349       1.00000000       2.00000000       1.00000000       0.52711064       0.59711137       0.48224917       0.31076513      -0.00000000       0.09220295
X       11.21034524      11.50796862      11.19164013       0.10927958       0.73444134      -0.13936898       0.65515661       1.00000000       2.00000000       1.00000000      -0.52711064      -0.59711137      -0.48224917       0.33180801       0.00000000      -0.20884494
2
Lattice="20.0 0.0 0.0 0.0 20.0 0.0 0.0 0.0 20.0" Properties=species:S:1:pos:R:3:quaternions:R:4:c_diameter\[1\]:R:1:c_diameter\[2\]:R:1:c_diameter\[3\]:R:1:forces:R:3:torques:R:3 energy=-0.020073473234486765 pbc="F F F"
X       10.00000000      10.00000000      10.00000000       0.29137413       0.66215662       0.54639500      -0.42202160       1.00000000       2.00000000       1.00000000       0.02148490       0.02781974       0.00929590      -0.01132651      -0.00000000      -0.00428781
X       11.72355431      11.87937473      11.29165348      -0.37425131      -0.55106678       0.70446883      -0.24491843       1.00000000       2.00000000       1.00000000      -0.02148490      -0.02781974      -0.00929590       0.00252251      -0.00000000       0.01951947
2
Lattice="20.0 0.0 0.0 0.0 20.0 0.0 0.0 0.0 20.0" Properties=species:S:1:pos:R:3:quaternions:R:4:c_diameter\[1\]:R:1:c_diameter\[2\]:R:1:c_diameter\[3\]:R:1:forces:R:3:torques:R:3 energy=-0.183201100186398 pbc="F F F"
X       10.00000000      10.00000000      10.00000000       0.84732017       0.46954837       0.23355354       0.08381884       1.00000000       2.00000000       1.00000000       0.42655148       0.38331496       0.43552365      -0.08350210       0.00000000       0.05063197
X       11.15707866      11.09095219      11.02668865       0.92769867       0.32054336      -0.19001521      -0.02283332       1.00000000       2.00000000       1.00000000      -0.42655148      -0.38331496      -0.43552365      -0.00900152      -0.00000000       0.04823834
2
Lattice="20.0 0.0 0.0 0.0 20.0 0.0 0.0 0.0 20.0" Properties=species:S:1:pos:R:3:quaternions:R:4:c_diameter\[1\]:R:1:c_diameter\[2\]:R:1:c_diameter\[3\]:R:1:forces:R:3:torques:R:3 energy=-0.04058919359563181 pbc="F F F"
X       10.00000000      10.00000000      10.00000000      -0.02087257       0.89194884      -0.12357211       0.43442093       1.00000000       2.00000000       1.00000000       0.04911510       0.02711488       0.05265126      -0.02403844      -0.00000000      -0.05160267
X       11.41981351      11.93064641      11.97046060       0.32789433       0.80028645      -0.10592214       0.49072132       1.00000000       2.00000000       1.00000000      -0.04911510      -0.02711488      -0.05265126       0.05039764      -0.00000000      -0.02231081
2
Lattice="20.0 0.0 0.0 0.0 20.0 0.0 0.0 0.0 20.0" Properties=species:S:1:pos:R:3:quaternions:R:4:c_diameter\[1\]:R:1:c_diameter\[2\]:R:1:c_diameter\[3\]:R:1:forces:R:3:torques:R:3 energy=-0.03491513565981667 pbc="F F F"
X       10.00000000      10.00000000      10.00000000       0.23768012      -0.56294396       0.79155657       0.00636010       1.00000000       2.00000000       1.00000000       0.03739125       0.05048427       0.03039886      -0.02097024      -0.00000000       0.01126394
X       11.99241404      11.81805711      11.39986184       0.67489661       0.01316411       0.49622111       0.54599074       1.00000000       2.00000000       1.00000000      -0.03739125      -0.05048427      -0.03039886      -0.00581517       0.00000000      -0.02049187
2
Lattice="20.0 0.0 0.0 0.0 20.0 0.0 0.0 0.0 20.0" Properties=species:S:1:pos:R:3:quaternions:R:4:c_diameter\[1\]:R:1:c_diameter\[2\]:R:1:c_diameter\[3\]:R:1:forces:R:3:torques:R:3 energy=-0.024452386217766946 pbc="F F F"
X       10.00000000      10.00000000      10.00000000       0.34157569       0.18066623       0.29667905       0.87330825       1.00000000       2.00000000       1.00000000       0.01978068       0.02854227       0.03069216      -0.01858578      -0.00000000      -0.01245016
X       11.58161988      11.19728957      11.91962330       0.11800835       0.88797013       0.44391528       0.02285391       1.00000000       2.00000000       1.00000000      -0.01978068      -0.02854227      -0.03069216       0.01101207       0.00000000       0.00390740
2
Lattice="20.0 0.0 0.0 0.0 20.0 0.0 0.0 0.0 20.0" Properties=species:S:1:pos:R:3:quaternions:R:4:c_diameter\[1\]:R:1:c_diameter\[2\]:R:1:c_diameter\[3\]:R:1:forces:R:3:torques:R:3 energy=-0.045572658433612516 pbc="F F F"
X       10.00000000      10.00000000      10.00000000       0.63490696      -0.31253461       0.07578390       0.70247567       1.00000000       2.00000000       1.00000000       0.06579116       0.05377521       0.06220388       0.00076600      -0.00000000      -0.05598317
X       11.81230217      11.33915525      11.63105177       0.11354654       0.49268825      -0.02492295       0.86240612       1.00000000       2.00000000       1.00000000      -0.06579116      -0.05377521      -0.06220388       0.04495502      -0.00000000      -0.00437480
2
Lattice="20.0 0.0 0.0 0.0 20.0 0.0 0.0 0.0 20.0" Properties=species:S:1:pos:R:3:quaternions:R:4:c_diameter\[1\]:R:1:c_diameter\[2\]:R:1:c_diameter\[3\]:R:1:forces:R:3:torques:R:3 energy=-0.057925485811315916 pbc="F F F"
X       10.00000000      10.00000000      10.00000000       0.14650916       0.76875359       0.11052454      -0.61264779       1.00000000       2.00000000       1.00000000       0.07182822       0.06420668       0.10545506      -0.08094024      -0.00000000       0.03330918
X       11.31586407      11.75505952      11.54946231       0.71872266      -0.08295136      -0.42388308       0.54486690       1.00000000       2.00000000       1.00000000      -0.07182822      -0.06420668      -0.10545506      -0.02145943      -0.00000000      -0.06482537
2
Lattice="20.0 0.0 0.0 0.0 20.0 0.0 0.0 0.0 20.0" Properties=species:S:1:pos:R:3:quaternions:R:4:c_diameter\[1\]:R:1:c_diameter\[2\]:R:1:c_diameter\[3\]:R:1:forces:R:3:torques:R:3 energy=-0.3499812156781708 pbc="F F F"
X       10.00000000      10.00000000      10.00000000       0.61305822       0.10812352       0.46952280       0.62611282       1.00000000       2.00000000       1.00000000       0.60288224       0.80590833       0.63018668      -0.57151178       0.00000000      -0.02581500
X       11.73810222      11.14732131      11.59493431      -0.54370613      -0.24868156      -0.35082702       0.72073679       1.00000000       2.00000000       1.00000000      -0.60288224      -0.80590833      -0.63018668      -0.33963520      -0.00000000      -0.41983715
2
Lattice="20.0 0.0 0.0 0.0 20.0 0.0 0.0 0.0 20.0" Properties=species:S:1:pos:R:3:quaternions:R:4:c_diameter\[1\]:R:1:c_diameter\[2\]:R:1:c_diameter\[3\]:R:1:forces:R:3:torques:R:3 energy=-0.04356909986099903 pbc="F F F"
X       10.00000000      10.00000000      10.00000000       0.62948535      -0.13941475       0.76440184       0.00124286       1.00000000       2.00000000       1.00000000       0.06830621       0.04483391       0.04198963       0.04935369       0.00000000       0.01847297
X       11.84060693      11.66233339      11.71282219       0.57554689       0.64001495       0.02906909      -0.50821415       1.00000000       2.00000000       1.00000000      -0.06830621      -0.04483391      -0.04198963       0.00745254      -0.00000000      -0.04214755
2
Lattice="20.0 0.0 0.0 0.0 20.0 0.0 0.0 0.0 20.0" Properties=species:S:1:pos:R:3:quaternions:R:4:c_diameter\[1\]:R:1:c_diameter\[2\]:R:1:c_diameter\[3\]:R:1:forces:R:3:torques:R:3 energy=-0.4044758729895016 pbc="F F F"
X       10.00000000      10.00000000      10.00000000       0.08791437       0.07231894      -0.29381568       0.94905921       1.00000000       2.00000000       1.00000000       1.21149122       0.63865021       0.71651927       0.32556855      -0.00000000       0.61766916
X       11.10717502      11.44007210      11.38647431      -0.14788534      -0.50676019      -0.35020794       0.77374313       1.00000000       2.00000000       1.00000000      -1.21149122      -0.63865021      -0.71651927      -0.64913657      -0.00000000       0.24972252
2
Lattice="20.0 0.0 0.0 0.0 20.0 0.0 0.0 0.0 20.0" Properties=species:S:1:pos:R:3:quaternions:R:4:c_diameter\[1\]:R:1:c_diameter\[2\]:R:1:c_diameter\[3\]:R:1:forces:R:3:torques:R:3 energy=-0.021317564659794678 pbc="F F F"
X       10.00000000      10.00000000      10.00000000      -0.44476208       0.40206442       0.33966271       0.72467933       1.00000000       2.00000000       1.00000000       0.02500945       0.02292520       0.02292283      -0.00151325      -0.00000000      -0.00195827
X       11.48368803      11.66960124      11.43834354       0.15124882       0.51121957       0.19478764       0.82330804       1.00000000       2.00000000       1.00000000      -0.02500945      -0.02292520      -0.02292283       0.00992526       0.00000000       0.00033406
2
Lattice="20.0 0.0 0.0 0.0 20.0 0.0 0.0 0.0 20.0" Properties=species:S:1:pos:R:3:quaternions:R:4:c_diameter\[1\]:R:1:c_diameter\[2\]:R:1:c_diameter\[3\]:R:1:forces:R:3:torques:R:3 energy=-0.027426755066449395 pbc="F F F"
X       10.00000000      10.00000000      10.00000000       0.10480969      -0.59284727       0.79345878       0.08927602       1.00000000       2.00000000       1.00000000       0.02046376       0.03931493       0.03191053      -0.01771782      -0.00000000       0.00461182
X       11.50556239      11.49239075      11.66048922      -0.24700684      -0.48540736       0.82359044      -0.15832277       1.00000000       2.00000000       1.00000000      -0.02046376      -0.03931493      -0.03191053       0.00269323      -0.00000000       0.02715124
2
Lattice="20.0 0.0 0.0 0.0 20.0 0.0 0.0 0.0 20.0" Properties=species:S:1:pos:R:3:quaternions:R:4:c_diameter\[1\]:R:1:c_diameter\[2\]:R:1:c_diameter\[3\]:R:1:forces:R:3:torques:R:3 energy=-0.024760906927665697 pbc="F F F"
X       10.00000000      10.00000000      10.00000000       0.02074292       0.14698448       0.83544015      -0.52915503       1.00000000       2.00000000       1.00000000       0.03103841       0.03062391       0.02213635      -0.01253797      -0.00000000      -0.00099913
X       11.35470269      11.66180364      11.55438017       0.55043344       0.53798540      -0.04673366       0.63671870       1.00000000       2.00000000       1.00000000      -0.03103841      -0.03062391      -0.02213635       0.01684488      -0.00000000      -0.00594273
2
Lattice="20.0 0.0 0.0 0.0 20.0 0.0 0.0 0.0 20.0" Properties=species:S:1:pos:R:3:quaternions:R:4:c_diameter\[1\]:R:1:c_diameter\[2\]:R:1:c_diameter\[3\]:R:1:forces:R:3:torques:R:3 energy=-0.08338770783057067 pbc="F F F"
X       10.00000000      10.00000000      10.00000000       0.97240748      -0.18450677      -0.02928433       0.13972605       1.00000000       2.00000000       1.00000000       0.17222336       0.06179493       0.13892583      -0.10994419      -0.00000000       0.07386212
X       11.47460940      11.28046292      11.61037745       0.51149812       0.44560792      -0.25501623       0.68903555       1.00000000       2.00000000       1.00000000      -0.17222336      -0.06179493      -0.13892583       0.08446784       0.00000000       0.03898389
2
Lattice="20.0 0.0 0.0 0.0 20.0 0.0 0.0 0.0 20.0" Properties=species:S:1:pos:R:3:quaternions:R:4:c_diameter\[1\]:R:1:c_diameter\[2\]:R:1:c_diameter\[3\]:R:1:forces:R:3:torques:R:3 energy=-0.04338748633887313 pbc="F F F"
X       10.00000000      10.00000000      10.00000000       0.36021145      -0.47754438       0.69109348      -0.40569556       1.00000000       2.00000000       1.00000000       0.03617804       0.06382366       0.07566579      -0.04514022      -0.00000000      -0.01346085
X       11.05816712      11.13866507      11.92281486      -0.58992386       0.74684960      -0.11747515       0.28355794       1.00000000       2.00000000       1.00000000      -0.03617804      -0.06382366      -0.07566579       0.01961165      -0.00000000       0.02257283
2
Lattice="20.0 0.0 0.0 0.0 20.0 0.0 0.0 0.0 20.0" Properties=species:S:1:pos:R:3:quaternions:R:4:c_diameter\[1\]:R:1:c_diameter\[2\]:R:1:c_diameter\[3\]:R:1:forces:R:3:torques:R:3 energy=-0.03394735204610772 pbc="F F F"
X       10.00000000      10.00000000      10.00000000      -0.48564030       0.73840176      -0.41204402       0.22166653       1.00000000       2.00000000       1.00000000       0.02133042       0.04416245       0.04089702      -0.03014679       0.00000000      -0.02092675
X       11.80810240      11.97077125      11.35424224       0.51141073       0.44212394       0.64674050       0.35314616       1.00000000       2.00000000       1.00000000      -0.02133042      -0.04416245      -0.04089702      -0.02035636      -0.00000000       0.02025862
2
Lattice="20.0 0.0 0.0 0.0 20.0 0.0 0.0 0.0 20.0" Properties=species:S:1:pos:R:3:quaternions:R:4:c_diameter\[1\]:R:1:c_diameter\[2\]:R:1:c_diameter\[3\]:R:1:forces:R:3:torques:R:3 energy=-0.36403947616994314 pbc="F F F"
X       10.00000000      10.00000000      10.00000000       0.88284693      -0.33183697      -0.32382567       0.07484955       1.00000000       2.00000000       1.00000000       0.85596778       1.14756279       0.60412396      -0.14332947       0.00000000       0.25948661
X       11.02573927      11.65055277      11.14372874      -0.61733128       0.75893568       0.09215660       0.18554213       1.00000000       2.00000000       1.00000000      -0.85596778      -1.14756279      -0.60412396       0.19913682      -0.00000000       0.27631234
2
Lattice="20.0 0.0 0.0 0.0 20.0 0.0 0.0 0.0 20.0" Properties=species:S:1:pos:R:3:quaternions:R:4:c_diameter\[1\]:R:1:c_diameter\[2\]:R:1:c_diameter\[3\]:R:1:forces:R:3:torques:R:3 energy=-1.1043191660844631 pbc="F F F"
X       10.00000000      10.00000000      10.00000000       0.48445274       0.80480941       0.00335957      -0.34289368       1.00000000       2.00000000       1.00000000       2.92148320       3.86281015       1.70319206       0.51693279      -0.00000000      -1.59958836
X       11.04375778      11.51536056      11.46527012      -0.30290875      -0.26969042      -0.43163551       0.80573206       1.00000000       2.00000000       1.00000000      -2.92148320      -3.86281015      -1.70319206      -2.18516551       0.00000000      -0.35313993
2
Lattice="20.0 0.0 0.0 0.0 20.0 0.0 0.0 0.0 20.0" Properties=species:S:1:pos:R:3:quaternions:R:4:c_diameter\[1\]:R:1:c_diameter\[2\]:R:1:c_diameter\[3\]:R:1:forces:R:3:torques:R:3 energy=-0.04625555816204606 pbc="F F F"
X       10.00000000      10.00000000      10.00000000       0.64632981       0.06687264      -0.48489010       0.58537801       1.00000000       2.00000000       1.00000000       0.06222855       0.06963349       0.06840759      -0.00738584      -0.00000000      -0.02994507
X       11.20380060      11.75841170      11.09996645       0.88521064       0.13515476      -0.41312221      -0.16572671       1.00000000       2.00000000       1.00000000      -0.06222855      -0.06963349      -0.06840759      -0.04471543      -0.00000000       0.00418802
2
Lattice="20.0 0.0 0.0 0.0 20.0 0.0 0.0 0.0 20.0" Properties=species:S:1:pos:R:3:quaternions:R:4:c_diameter\[1\]:R:1:c_diameter\[2\]:R:1:c_diameter\[3\]:R:1:forces:R:3:torques:R:3 energy=-0.054424882616924006 pbc="F F F"
X       10.00000000      10.00000000      10.00000000       0.59936027       0.71384823       0.03697417      -0.36030665       1.00000000       2.00000000       1.00000000       0.06377325       0.11437464       0.03955437       0.05019753      -0.00000000      -0.05907570
X       11.43766093      11.88731975      11.07621837      -0.54870933       0.73405141      -0.34726268       0.19873406       1.00000000       2.00000000       1.00000000      -0.06377325      -0.11437464      -0.03955437      -0.03353246      -0.00000000      -0.00311594
2
Lattice="20.0 0.0 0.0 0.0 20.0 0.0 0.0 0.0 20.0" Properties=species:S:1:pos:R:3:quaternions:R:4:c_diameter\[1\]:R:1:c_diameter\[2\]:R:1:c_diameter\[3\]:R:1:forces:R:3:torques:R:3 energy=-0.12096706067053009 pbc="F F F"
X       10.00000000      10.00000000      10.00000000       0.12680712      -0.35989204      -0.15656338       0.91098056       1.00000000       2.00000000       1.00000000       0.24390358       0.22994696       0.20343405      -0.03431423      -0.00000000       0.17625032
X       11.00883170      11.40840135      11.62719121       0.12734063      -0.00149430       0.68974779       0.71276231       1.00000000       2.00000000       1.00000000      -0.24390358      -0.22994696      -0.20343405      -0.14636429      -0.00000000      -0.15908571
2
Lattice="20.0 0.0 0.0 0.0 20.0 0.0 0.0 0.0 20.0" Properties=species:S:1:pos:R:3:quaternions:R:4:c_diameter\[1\]:R:1:c_diameter\[2\]:R:1:c_diameter\[3\]:R:1:forces:R:3:torques:R:3 energy=-0.02366353252473059 pbc="F F F"
X       10.00000000      10.00000000      10.00000000      -0.03776523      -0.57381765       0.70680920       0.41198039       1.00000000       2.00000000       1.00000000       0.02223741       0.03487312       0.01886773       0.00403189      -0.00000000       0.00451602
X       11.43110649      11.82761963      11.58118679       0.59049864      -0.56519704       0.34612757       0.46049905       1.00000000       2.00000000       1.00000000      -0.02223741      -0.03487312      -0.01886773       0.01577829      -0.00000000      -0.01994064
2
Lattice="20.0 0.0 0.0 0.0 20.0 0.0 0.0 0.0 20.0" Properties=species:S:1:pos:R:3:quaternions:R:4:c_diameter\[1\]:R:1:c_diameter\[2\]:R:1:c_diameter\[3\]:R:1:forces:R:3:torques:R:3 energy=-0.023501198366056925 pbc="F F F"
X       10.00000000      10.00000000      10.00000000       0.45389980       0.22577865       0.79108342      -0.34232439       1.00000000       2.00000000       1.00000000       0.01609950       0.02535671       0.03103418       0.00512899       0.00000000      -0.00193033
X       11.60795096      11.85020059      11.76632145       0.85408823      -0.15907129      -0.25758753       0.42294004       1.00000000       2.00000000       1.00000000      -0.01609950      -0.02535671      -0.03103418      -0.00876203       0.00000000      -0.02375519
2
Lattice="20.0 0.0 0.0 0.0 20.0 0.0 0.0 0.0 20.0" Properties=species:S:1:pos:R:3:quaternions:R:4:c_diameter\[1\]:R:1:c_diameter\[2\]:R:1:c_diameter\[3\]:R:1:forces:R:3:torques:R:3 energy=-0.03669847342268619 pbc="F F F"
X       10.00000000      10.00000000      10.00000000      -0.43601902      -0.59138965       0.67309920       0.08416154       1.00000000       2.00000000       1.00000000       0.04228882       0.04865130       0.04954818       0.00714961      -0.00000000       0.04767042
X       11.70047371      11.05801159      11.75308495      -0.58146596      -0.20723278       0.61886531      -0.48575471       1.00000000       2.00000000       1.00000000      -0.04228882      -0.04865130      -0.04954818       0.01200775       0.00000000       0.01306790
2
Lattice="20.0 0.0 0.0 0.0 20.0 0.0 0.0 0.0 20.0" Properties=species:S:1:pos:R:3:quaternions:R:4:c_diameter\[1\]:R:1:c_diameter\[2\]:R:1:c_diameter\[3\]:R:1:forces:R:3:torques:R:3 energy=-0.027367599811692876 pbc="F F F"
X       10.00000000      10.00000000      10.00000000       0.60324750       0.37164448      -0.11895452       0.69557361       1.00000000       2.00000000       1.00000000       0.03588868       0.02523189       0.03766234       0.00649669      -0.00000000      -0.00190407
X       11.46705504      11.01530163      11.77589828      -0.34389109       0.93668812      -0.04526835      -0.04801102       1.00000000       2.00000000       1.00000000      -0.03588868      -0.02523189      -0.03766234       0.00811555      -0.00000000       0.00155863
2
Lattice="20.0 0.0 0.0 0.0 20.0 0.0 0.0 0.0 20.0" Properties=species:S:1:pos:R:3:quaternions:R:4:c_diameter\[1\]:R:1:c_diameter\[2\]:R:1:c_diameter\[3\]:R:1:forces:R:3:torques:R:3 energy=-0.07484737478979528 pbc="F F F"
X       10.00000000      10.00000000      10.00000000       0.00200301       0.70388197      -0.66069765       0.26081560       1.00000000       2.00000000       1.00000000       0.09547634       0.13319360       0.11802172      -0.10197495      -0.00000000       0.03732440
X       11.70041072      11.27358762      11.42205888       0.35607447      -0.64848593       0.11278986       0.66329136       1.00000000       2.00000000       1.00000000      -0.09547634      -0.13319360      -0.11802172       0.04067143      -0.00000000      -0.02156364
2
Lattice="20.0 0.0 0.0 0.0 20.0 0.0 0.0 0.0 20.0" Properties=species:S:1:pos:R:3:quaternions:R:4:c_diameter\[1\]:R:1:c_diameter\[2\]:R:1:c_diameter\[3\]:R:1:forces:R:3:torques:R:3 energy=-0.04293083314497303 pbc="F F F"
X       10.00000000      10.00000000      10.00000000       0.71588817       0.04814911      -0.32146397      -0.61793746       1.00000000       2.00000000       1.00000000       0.05475939       0.05871987       0.05971672      -0.00028074       0.00000000       0.00747966
X       11.03034407      11.62210182      11.50576001       0.81636105      -0.32248844       0.38064218      -0.29097659       1.00000000       2.00000000       1.00000000      -0.05475939      -0.05871987      -0.05971672       0.00613083       0.00000000       0.03421692
2
Lattice="20.0 0.0 0.0 0.0 20.0 0.0 0.0 0.0 20.0" Properties=species:S:1:pos:R:3:quaternions:R:4:c_diameter\[1\]:R:1:c_diameter\[2\]:R:1:c_diameter\[3\]:R:1:forces:R:3:torques:R:3 energy=-0.071271501694602 pbc="F F F"
X       10.00000000      10.00000000      10.00000000       0.39803404       0.81646741       0.28655268      -0.30469236       1.00000000       2.00000000       1.00000000       0.14717170       0.06275903       0.04558507      -0.03226484      -0.00000000      -0.08452130
X       11.74947976      11.50946559      11.33549847      -0.02562366      -0.14734171      -0.34207087       0.92769681       1.00000000       2.00000000       1.00000000      -0.14717170      -0.06275903      -0.04558507       0.00057139       0.00000000       0.08489272
2
Lattice="20.0 0.0 0.0 0.0 20.0 0.0 0.0 0.0 20.0" Properties=species:S:1:pos:R:3:quaternions:R:4:c_diameter\[1\]:R:1:c_diameter\[2\]:R:1:c_diameter\[3\]:R:1:forces:R:3:torques:R:3 energy=-0.06526194142784612 pbc="F F F"
X       10.00000000      10.00000000      10.00000000       0.95719012      -0.04249385      -0.27840465      -0.06687444       1.00000000       2.00000000       1.00000000       0.14901305       0.04162080       0.06281308      -0.07829335      -0.00000000       0.01444069
X       11.76178628      11.22273895      11.16914001       0.64333784      -0.18830440      -0.64001707      -0.37554764       1.00000000       2.00000000       1.00000000      -0.14901305      -0.04162080      -0.06281308      -0.07820540      -0.00000000       0.02198407
2
Lattice="20.0 0.0 0.0 0.0 20.0 0.0 0.0 0.0 20.0" Properties=species:S:1:pos:R:3:quaternions:R:4:c_diameter\[1\]:R:1:c_diameter\[2\]:R:1:c_diameter\[3\]:R:1:forces:R:3:torques:R:3 energy=-0.020392124542842296 pbc="F F F"
X       10.00000000      10.00000000      10.00000000       0.38136175       0.90242018       0.08306099       0.18248809       1.00000000       2.00000000       1.00000000       0.02937600       0.00836020       0.01894928       0.00772725      -0.00000000      -0.01807023
X       11.91541989      11.19263326      11.84040793       0.22159678      -0.10174525      -0.04211073       0.96890116       1.00000000       2.00000000       1.00000000      -0.02937600      -0.00836020      -0.01894928       0.00954927      -0.00000000       0.00650390
2
Lattice="20.0 0.0 0.0 0.0 20.0 0.0 0.0 0.0 20.0" Properties=species:S:1:pos:R:3:quaternions:R:4:c_diameter\[1\]:R:1:c_diameter\[2\]:R:1:c_diameter\[3\]:R:1:forces:R:3:torques:R:3 energy=-0.016803636068357587 pbc="F F F"
X       10.00000000      10.00000000      10.00000000      -0.03298003      -0.67470652       0.73676378       0.02936928       1.00000000       2.00000000       1.00000000       0.01332592       0.02162412       0.01203966      -0.00212279       0.00000000       0.01577826
X       11.91897590      11.99895852      11.22799721       0.47543066       0.78860937       0.38988350      -0.00719751       1.00000000       2.00000000       1.00000000      -0.01332592      -0.02162412      -0.01203966       0.00373742      -0.00000000       0.00121973
2
Lattice="20.0 0.0 0.0 0.0 20.0 0.0 0.0 0.0 20.0" Properties=species:S:1:pos:R:3:quaternions:R:4:c_diameter\[1\]:R:1:c_diameter\[2\]:R:1:c_diameter\[3\]:R:1:forces:R:3:torques:R:3 energy=-0.05869315827102431 pbc="F F F"
X       10.00000000      10.00000000      10.00000000      -0.40056182      -0.08971548       0.82592819      -0.38645049       1.00000000       2.00000000       1.00000000       0.08612125       0.10430890       0.05475869       0.00648526       0.00000000      -0.03921989
X       11.73248503      11.79347275      11.09635498       0.45855260       0.80526199      -0.37237636      -0.05117120       1.00000000       2.00000000       1.00000000      -0.08612125      -0.10430890      -0.05475869       0.06038530       0.00000000       0.01882358
2
Lattice="20.0 0.0 0.0 0.0 20.0 0.0 0.0 0.0 20.0" Properties=species:S:1:pos:R:3:quaternions:R:4:c_diameter\[1\]:R:1:c_diameter\[2\]:R:1:c_diameter\[3\]:R:1:forces:R:3:torques:R:3 energy=-0.16207317687423575 pbc="F F F"
X       10.00000000      10.00000000      10.00000000       0.22065095       0.12308007       0.23455660       0.93869466       1.00000000       2.00000000       1.00000000       0.33425921       0.36990951       0.27695711      -0.05487781      -0.00000000       0.01189925
X       11.21450670      11.18160209      11.54506109       0.65976986       0.66907819       0.07145251      -0.33456337       1.00000000       2.00000000       1.00000000      -0.33425921      -0.36990951      -0.27695711       0.05456217       0.00000000      -0.27858330
2
Lattice="20.0 0.0 0.0 0.0 20.0 0.0 0.0 0.0 20.0" Properties=species:S:1:pos:R:3:quaternions:R:4:c_diameter\[1\]:R:1:c_diameter\[2\]:R:1:c_diameter\[3\]:R:1:forces:R:3:torques:R:3 energy=-0.35430579568702686 pbc="F F F"
X       10.00000000      10.00000000      10.00000000      -0.66529440       0.27619166       0.69144155      -0.05486449       1.00000000       2.00000000       1.00000000       0.90533397       0.80141370       0.81775976      -0.29130654       0.00000000      -0.47052799
X       11.18216585      11.38597341      11.46726765       0.60324119       0.56999017       0.38424537      -0.40443389       1.00000000       2.00000000       1.00000000      -0.90533397      -0.80141370      -0.81775976      -0.25810895       0.00000000      -0.63243383
2
Lattice="20.0 0.0 0.0 0.0 20.0 0.0 0.0 0.0 20.0" Properties=species:S:1:pos:R:3:quaternions:R:4:c_diameter\[1\]:R:1:c_diameter\[2\]:R:1:c_diameter\[3\]:R:1:forces:R:3:torques:R:3 energy=-0.018223462272090856 pbc="F F F"
X       10.00000000      10.00000000      10.00000000       0.17716979      -0.18900364       0.36934138       0.89245472       1.00000000       2.00000000       1.00000000       0.01681229       0.02118686       0.01941629      -0.00343790       0.00000000      -0.00444210
X       11.44435097      11.59462178      11.66521297       0.36687127       0.75842723       0.53606732       0.05315484       1.00000000       2.00000000       1.00000000      -0.01681229      -0.02118686      -0.01941629      -0.00020508       0.00000000       0.00207685
2
Lattice="20.0 0.0 0.0 0.0 20.0 0.0 0.0 0.0 20.0" Properties=species:S:1:pos:R:3:quaternions:R:4:c_diameter\[1\]:R:1:c_diameter\[2\]:R:1:c_diameter\[3\]:R:1:forces:R:3:torques:R:3 energy=-0.09980601363089063 pbc="F F F"
X       10.00000000      10.00000000      10.00000000       0.73411708       0.02060769       0.67698064      -0.04842156       1.00000000       2.00000000       1.00000000       0.18228096       0.13939210       0.17201452       0.06360020      -0.00000000       0.11931314
X       11.15360418      11.74748001      11.09727216      -0.42729253      -0.28070760       0.85836881       0.04274712       1.00000000       2.00000000       1.00000000      -0.18228096      -0.13939210      -0.17201452      -0.04575940       0.00000000      -0.07763505
2
Lattice="20.0 0.0 0.0 0.0 20.0 0.0 0.0 0.0 20.0" Properties=species:S:1:pos:R:3:quaternions:R:4:c_diameter\[1\]:R:1:c_diameter\[2\]:R:1:c_diameter\[3\]:R:1:forces:R:3:torques:R:3 energy=-0.03950562120813882 pbc="F F F"
X       10.00000000      10.00000000      10.00000000       0.86481968       0.07290074      -0.07896826       0.49044512       1.00000000       2.00000000       1.00000000       0.03841563       0.02735483       0.07361948      -0.04257462      -0.00000000      -0.02254227
X       11.54060553      11.21964983      11.72650935       0.87572009       0.14338487      -0.44054363       0.13592799       1.00000000       2.00000000       1.00000000      -0.03841563      -0.02735483      -0.07361948      -0.03151939      -0.00000000       0.00208630
2
Lattice="20.0 0.0 0.0 0.0 20.0 0.0 0.0 0.0 20.0" Properties=species:S:1:pos:R:3:quaternions:R:4:c_diameter\[1\]:R:1:c_diameter\[2\]:R:1:c_diameter\[3\]:R:1:forces:R:3:torques:R:3 energy=-0.010132072346418622 pbc="F F F"
X       10.00000000      10.00000000      10.00000000       0.01152530       0.60310160      -0.55162932      -0.57605618       1.00000000       2.00000000       1.00000000       0.00625737       0.00774562       0.00984114       0.00070087      -0.00000000       0.00454947
X       11.70905451      11.93404903      11.95695726      -0.21778229       0.65254250      -0.47408584      -0.54954688       1.00000000       2.00000000       1.00000000      -0.00625737      -0.00774562      -0.00984114      -0.00219642      -0.00000000       0.00071727
2
Lattice="20.0 0.0 0.0 0.0 20.0 0.0 0.0 0.0 20.0" Properties=species:S:1:pos:R:3:quaternions:R:4:c_diameter\[1\]:R:1:c_diameter\[2\]:R:1:c_diameter\[3\]:R:1:forces:R:3:torques:R:3 energy=-0.05832158361198263 pbc="F F F"
X       10.00000000      10.00000000      10.00000000       0.09783228       0.50813195       0.64354735       0.56398366       1.00000000       2.00000000       1.00000000       0.07329526       0.08810038       0.09638542      -0.05035512       0.00000000       0.06815160
X       11.65368654      11.21341756      11.58360197      -0.18240310       0.10060072       0.92672632      -0.31270901       1.00000000       2.00000000       1.00000000      -0.07329526      -0.08810038      -0.09638542       0.02913199      -0.00000000      -0.01922956
2
Lattice="20.0 0.0 0.0 0.0 20.0 0.0 0.0 0.0 20.0" Properties=species:S:1:pos:R:3:quaternions:R:4:c_diameter\[1\]:R:1:c_diameter\[2\]:R:1:c_diameter\[3\]:R:1:forces:R:3:torques:R:3 energy=-0.05188319868964188 pbc="F F F"
X       10.00000000      10.00000000      10.00000000       0.42154201      -0.32978304      -0.34258993       0.77212539       1.00000000       2.00000000       1.00000000       0.06014556       0.05497712       0.09048680       0.00229152       0.00000000      -0.01348272
X       11.52350558      11.46712216      11.87661465       0.28971604       0.90618453      -0.30713911       0.02365976       1.00000000       2.00000000       1.00000000      -0.06014556      -0.05497712      -0.09048680      -0.03467388      -0.00000000      -0.01032282
2
Lattice="20.0 0.0 0.0 0.0 20.0 0.0 0.0 0.0 20.0" Properties=species:S:1:pos:R:3:quaternions:R:4:c_diameter\[1\]:R:1:c_diameter\[2\]:R:1:c_diameter\[3\]:R:1:forces:R:3:torques:R:3 energy=-0.10886820424764827 pbc="F F F"
X       10.00000000      10.00000000      10.00000000      -0.31864050      -0.14215972       0.12128944       0.92927268       1.00000000       2.00000000       1.00000000       0.09204457       0.05305427       0.26949276       0.11660105      -0.00000000       0.07882182
X       11.33032845      11.07789989      11.86738595      -0.40119486      -0.05254922      -0.04722251       0.91326409       1.00000000       2.00000000       1.00000000      -0.09204457      -0.05305427      -0.26949276       0.13031699       0.00000000       0.00191386
2
Lattice="20.0 0.0 0.0 0.0 20.0 0.0 0.0 0.0 20.0" Properties=species:S:1:pos:R:3:quaternions:R:4:c_diameter\[1\]:R:1:c_diameter\[2\]:R:1:c_diameter\[3\]:R:1:forces:R:3:torques:R:3 energy=-0.02850338035777411 pbc="F F F"
X       10.00000000      10.00000000      10.00000000       0.70572543       0.54513824      -0.29052772       0.34694317       1.00000000       2.00000000       1.00000000       0.04112867       0.03324588       0.02847717       0.02370306       0.00000000      -0.00178244
X       11.76326805      11.10497299      11.55066903       0.39206614      -0.03980222       0.02815756       0.91864415       1.00000000       2.00000000       1.00000000      -0.04112867      -0.03324588      -0.02847717      -0.00928237       0.00000000      -0.01258469
2
Lattice="20.0 0.0 0.0 0.0 20.0 0.0 0.0 0.0 20.0" Properties=species:S:1:pos:R:3:quaternions:R:4:c_diameter\[1\]:R:1:c_diameter\[2\]:R:1:c_diameter\[3\]:R:1:forces:R:3:torques:R:3 energy=-0.017716525895878334 pbc="F F F"
X       10.00000000      10.00000000      10.00000000       0.69162198      -0.10597397      -0.21573194       0.68109345       1.00000000       2.00000000       1.00000000       0.00585625       0.02071818       0.01963025      -0.01280522      -0.00000000      -0.01144997
X       11.47581558      11.79316829      11.95188145      -0.44576983       0.70370269       0.31355352      -0.45582449       1.00000000       2.00000000       1.00000000      -0.00585625      -0.02071818      -0.01963025       0.01701921       0.00000000      -0.00038925
2
Lattice="20.0 0.0 0.0 0.0 20.0 0.0 0.0 0.0 20.0" Properties=species:S:1:pos:R:3:quaternions:R:4:c_diameter\[1\]:R:1:c_diameter\[2\]:R:1:c_diameter\[3\]:R:1:forces:R:3:torques:R:3 energy=-0.03382915823996486 pbc="F F F"
X       10.00000000      10.00000000      10.00000000      -0.24403318       0.96764613       0.00616816      -0.06380227       1.00000000       2.00000000       1.00000000       0.04351632       0.01545822       0.05427239      -0.00446169      -0.00000000      -0.01177260
X       11.80618157      11.05773639      11.65157662      -0.28462485       0.65065751      -0.09749408       0.69722909       1.00000000       2.00000000       1.00000000      -0.04351632      -0.01545822      -0.05427239       0.01213542       0.00000000      -0.03381187
2
Lattice="20.0 0.0 0.0 0.0 20.0 0.0 0.0 0.0 20.0" Properties=species:S:1:pos:R:3:quaternions:R:4:c_diameter\[1\]:R:1:c_diameter\[2\]:R:1:c_diameter\[3\]:R:1:forces:R:3:torques:R:3 energy=-0.011603904299419097 pbc="F F F"
X       10.00000000      10.00000000      10.00000000       0.17222425       0.21768501       0.01172629       0.96063236       1.00000000       2.00000000       1.00000000       0.01279557       0.00746741       0.00934873       0.00710644      -0.00000000       0.00176990
X       11.83156219      11.60842992      11.95941536       0.63918047      -0.44165662      -0.32826070      -0.53724545       1.00000000       2.00000000       1.00000000      -0.01279557      -0.00746741      -0.00934873      -0.00454236      -0.00000000       0.00649161
2
Lattice="20.0 0.0 0.0 0.0 20.0 0.0 0.0 0.0 20.0" Properties=species:S:1:pos:R:3:quaternions:R:4:c_diameter\[1\]:R:1:c_diameter\[2\]:R:1:c_diameter\[3\]:R:1:forces:R:3:torques:R:3 energy=-0.16411252923003425 pbc="F F F"
X       10.00000000      10.00000000      10.00000000       0.37573402      -0.44866836       0.67324970       0.45194633       1.00000000       2.00000000       1.00000000       0.33805525       0.32239480       0.16240444       0.13246896      -0.00000000      -0.18746137
X       11.20007316      11.52175229      11.53685905       0.16003297       0.33513025      -0.51368241       0.77343878       1.00000000       2.00000000       1.00000000      -0.33805525      -0.32239480      -0.16240444       0.02002045      -0.00000000       0.19555827
2
Lattice="20.0 0.0 0.0 0.0 20.0 0.0 0.0 0.0 20.0" Properties=species:S:1:pos:R:3:quaternions:R:4:c_diameter\[1\]:R:1:c_diameter\[2\]:R:1:c_diameter\[3\]:R:1:forces:R:3:torques:R:3 energy=-0.013750422923692218 pbc="F F F"
X       10.00000000      10.00000000      10.00000000       0.90748426       0.04692602       0.38187643      -0.16864359       1.00000000       2.00000000       1.00000000       0.01519403       0.01230249       0.00957910       0.00192732      -0.00000000       0.00569987
X       11.83019137      11.79550559      11.80752126       0.58594583       0.59161712      -0.40791799       0.37451246       1.00000000       2.00000000       1.00000000      -0.01519403      -0.01230249      -0.00957910       0.01258644       0.00000000       0.00318396
2
Lattice="20.0 0.0 0.0 0.0 20.0 0.0 0.0 0.0 20.0" Properties=species:S:1:pos:R:3:quaternions:R:4:c_diameter\[1\]:R:1:c_diameter\[2\]:R:1:c_diameter\[3\]:R:1:forces:R:3:torques:R:3 energy=-0.08775159079548402 pbc="F F F"
X       10.00000000      10.00000000      10.00000000       0.27738520       0.35150991       0.69056143      -0.56799925       1.00000000       2.00000000       1.00000000       0.10217581       0.20889771       0.13827266      -0.08933231       0.00000000      -0.05478392
X       11.05883741      11.50453628      11.29614961       0.73936886       0.01728631      -0.19992497       0.64270124       1.00000000       2.00000000       1.00000000      -0.10217581      -0.20889771      -0.13827266      -0.03136727      -0.00000000      -0.09711047
2
Lattice="20.0 0.0 0.0 0.0 20.0 0.0 0.0 0.0 20.0" Properties=species:S:1:pos:R:3:quaternions:R:4:c_diameter\[1\]:R:1:c_diameter\[2\]:R:1:c_diameter\[3\]:R:1:forces:R:3:torques:R:3 energy=-0.04635626396515556 pbc="F F F"
X       10.00000000      10.00000000      10.00000000      -0.45190087       0.63663907       0.25724678      -0.56947379       1.00000000       2.00000000       1.00000000       0.05578440       0.07378683       0.06671057       0.01941298       0.00000000      -0.02400043
X       11.35656335      11.73978248      11.12598851       0.69199610       0.16571351       0.69135104      -0.12535619       1.00000000       2.00000000       1.00000000      -0.05578440      -0.07378683      -0.06671057       0.01897071      -0.00000000       0.04955999
2
Lattice="20.0 0.0 0.0 0.0 20.0 0.0 0.0 0.0 20.0" Properties=species:S:1:pos:R:3:quaternions:R:4:c_diameter\[1\]:R:1:c_diameter\[2\]:R:1:c_diameter\[3\]:R:1:forces:R:3:torques:R:3 energy=-0.06824180446663211 pbc="F F F"
X       10.00000000      10.00000000      10.00000000       0.67997930      -0.19218597      -0.38452531      -0.59399747       1.00000000       2.00000000       1.00000000       0.09957104       0.12706757       0.09486588      -0.01536101      -0.00000000       0.01013955
X       11.30051783      11.49718798      11.04805292       0.71385849      -0.43989647       0.07559570      -0.53961324       1.00000000       2.00000000       1.00000000      -0.09957104      -0.12706757      -0.09486588      -0.00024289       0.00000000      -0.04511827
2
Lattice="20.0 0.0 0.0 0.0 20.0 0.0 0.0 0.0 20.0" Properties=species:S:1:pos:R:3:quaternions:R:4:c_diameter\[1\]:R:1:c_diameter\[2\]:R:1:c_diameter\[3\]:R:1:forces:R:3:torques:R:3 energy=-0.01170387992047348 pbc="F F F"
X       10.00000000      10.00000000      10.00000000       0.81749602      -0.03759884      -0.37171414      -0.43830947       1.00000000       2.00000000       1.00000000       0.00995791       0.00789379       0.01265367      -0.00369841      -0.00000000      -0.00054063
X       11.71865566      11.63469346      11.93877830       0.12501788       0.40244270       0.87237752      -0.24772540       1.00000000       2.00000000       1.00000000      -0.00995791      -0.00789379      -0.01265367       0.00654684      -0.00000000      -0.00101305
2
Lattice="20.0 0.0 0.0 0.0 20.0 0.0 0.0 0.0 20.0" Properties=species:S:1:pos:R:3:quaternions:R:4:c_diameter\[1\]:R:1:c_diameter\[2\]:R:1:c_diameter\[3\]:R:1:forces:R:3:torques:R:3 energy=-0.06853811805967101 pbc="F F F"
X       10.00000000      10.00000000      10.00000000       0.10436487      -0.29747113      -0.01495473       0.94889159       1.00000000       2.00000000       1.00000000       0.13658667       0.06263608       0.09050133      -0.02225041      -0.00000000       0.07726127
X       11.53720485      11.57376424      11.01286901      -0.05167135       0.71001319       0.19089465       0.67584804       1.00000000       2.00000000       1.00000000      -0.13658667      -0.06263608      -0.09050133       0.03994483      -0.00000000      -0.05518233
2
Lattice="20.0 0.0 0.0 0.0 20.0 0.0 0.0 0.0 20.0" Properties=species:S:1:pos:R:3:quaternions:R:4:c_diameter\[1\]:R:1:c_diameter\[2\]:R:1:c_diameter\[3\]:R:1:forces:R:3:torques:R:3 energy=-0.03130306552875484 pbc="F F F"
X       10.00000000      10.00000000      10.00000000       0.56811167       0.13449825       0.48434859       0.65158713       1.00000000       2.00000000       1.00000000       0.01827986       0.05216696       0.03078997      -0.03665769       0.00000000       0.00071255
X       11.39162344      11.95002178      11.51506865      -0.17492025      -0.25301982       0.88658081      -0.34548278       1.00000000       2.00000000       1.00000000      -0.01827986      -0.05216696      -0.03078997      -0.00019699      -0.00000000       0.01533954
2
Lattice="20.0 0.0 0.0 0.0 20.0 0.0 0.0 0.0 20.0" Properties=species:S:1:pos:R:3:quaternions:R:4:c_diameter\[1\]:R:1:c_diameter\[2\]:R:1:c_diameter\[3\]:R:1:forces:R:3:torques:R:3 energy=-0.5897167592750215 pbc="F F F"
X       10.00000000      10.00000000      10.00000000       0.30252295       0.74913398      -0.56961560      -0.15105035       1.00000000       2.00000000       1.00000000       0.98042080       1.53834243       1.62790372      -0.05919648       0.00000000       1.02509797
X       11.66193620      11.04919871      11.20246928       0.00462209       0.73129539      -0.67373657       0.10613536       1.00000000       2.00000000       1.00000000      -0.98042080      -1.53834243      -1.62790372      -0.92919595       0.00000000       0.63210643
2
Lattice="20.0 0.0 0.0 0.0 20.0 0.0 0.0 0.0 20.0" Properties=species:S:1:pos:R:3:quaternions:R:4:c_diameter\[1\]:R:1:c_diameter\[2\]:R:1:c_diameter\[3\]:R:1:forces:R:3:torques:R:3 energy=-0.13634757951740703 pbc="F F F"
X       10.00000000      10.00000000      10.00000000      -0.35999105       0.88932064      -0.13748561       0.24619696       1.00000000       2.00000000       1.00000000       0.11045203       0.21603618       0.37396760      -0.02580551      -0.00000000      -0.07434888
X       11.06860497      11.28619457      11.62811081       0.78774686       0.08691093       0.40138122       0.45912362       1.00000000       2.00000000       1.00000000      -0.11045203      -0.21603618      -0.37396760      -0.21333308       0.00000000       0.04817524
2
Lattice="20.0 0.0 0.0 0.0 20.0 0.0 0.0 0.0 20.0" Properties=species:S:1:pos:R:3:quaternions:R:4:c_diameter\[1\]:R:1:c_diameter\[2\]:R:1:c_diameter\[3\]:R:1:forces:R:3:torques:R:3 energy=-0.032584838283690465 pbc="F F F"
X       10.00000000      10.00000000      10.00000000       0.21626387       0.94295527      -0.10361377      -0.23093179       1.00000000       2.00000000       1.00000000       0.04142602       0.02580938       0.03832459      -0.01709085      -0.00000000      -0.02340019
X       11.76698807      11.95616036      11.56419446      -0.44229907      -0.04139788       0.84407339      -0.30032958       1.00000000       2.00000000       1.00000000      -0.04142602      -0.02580938      -0.03832459       0.00759375      -0.00000000      -0.03155684
2
Lattice="20.0 0.0 0.0 0.0 20.0 0.0 0.0 0.0 20.0" Properties=species:S:1:pos:R:3:quaternions:R:4:c_diameter\[1\]:R:1:c_diameter\[2\]:R:1:c_diameter\[3\]:R:1:forces:R:3:torques:R:3 energy=-0.07604504362215098 pbc="F F F"
X       10.00000000      10.00000000      10.00000000      -0.12844481       0.69151057       0.60430391       0.37434189       1.00000000       2.00000000       1.00000000       0.08633745       0.13599951       0.14211395       0.00081401       0.00000000       0.10720194
X       11.12019584      11.35786969      11.68140142      -0.14784964       0.78865019       0.17102056      -0.57177209       1.00000000       2.00000000       1.00000000      -0.08633745      -0.13599951      -0.14211395      -0.04842060       0.00000000       0.02602023
2
Lattice="20.0 0.0 0.0 0.0 20.0 0.0 0.0 0.0 20.0" Properties=species:S:1:pos:R:3:quaternions:R:4:c_diameter\[1\]:R:1:c_diameter\[2\]:R:1:c_diameter\[3\]:R:1:forces:R:3:torques:R:3 energy=-0.0919608729805701 pbc="F F F"
X       10.00000000      10.00000000      10.00000000       0.16472940      -0.44890067       0.65116479      -0.58935288       1.00000000       2.00000000       1.00000000       0.15443922       0.12128415       0.17453380      -0.10015162      -0.00000000       0.00344375
X       11.50595781      11.00783339      11.86670214       0.44514144       0.36989194      -0.17067568       0.79743267       1.00000000       2.00000000       1.00000000      -0.15443922      -0.12128415      -0.17453380       0.07638706       0.00000000       0.02504479
2
Lattice="20.0 0.0 0.0 0.0 20.0 0.0 0.0 0.0 20.0" Properties=species:S:1:pos:R:3:quaternions:R:4:c_diameter\[1\]:R:1:c_diameter\[2\]:R:1:c_diameter\[3\]:R:1:forces:R:3:torques:R:3 energy=-0.16064641603098567 pbc="F F F"
X       10.00000000      10.00000000      10.00000000       0.36009494       0.21935634       0.80932483       0.40891045       1.00000000       2.00000000       1.00000000       0.34465504       0.36090481       0.09120718      -0.10007196       0.00000000      -0.03277279
X       11.61780569      11.68815927      11.00623982       0.56368043       0.70989196      -0.20763410       0.36770350       1.00000000       2.00000000       1.00000000      -0.34465504      -0.36090481      -0.09120718       0.21971407      -0.00000000      -0.01607955
2
Lattice="20.0 0.0 0.0 0.0 20.0 0.0 0.0 0.0 20.0" Properties=species:S:1:pos:R:3:quaternions:R:4:c_diameter\[1\]:R:1:c_diameter\[2\]:R:1:c_diameter\[3\]:R:1:forces:R:3:torques:R:3 energy=-0.1489617379164966 pbc="F F F"
X       10.00000000      10.00000000      10.00000000      -0.34960673       0.82976643      -0.43332154       0.03866850       1.00000000       2.00000000       1.00000000       0.27585723       0.17449351       0.37724247      -0.10613502      -0.00000000      -0.02046034
X       11.28200925      11.29431567      11.59523080       0.74835941      -0.11695682       0.56430413       0.32839022       1.00000000       2.00000000       1.00000000      -0.27585723      -0.17449351      -0.37724247       0.12058449      -0.00000000       0.17742984
2
Lattice="20.0 0.0 0.0 0.0 20.0 0.0 0.0 0.0 20.0" Properties=species:S:1:pos:R:3:quaternions:R:4:c_diameter\[1\]:R:1:c_diameter\[2\]:R:1:c_diameter\[3\]:R:1:forces:R:3:torques:R:3 energy=-0.1389795610481829 pbc="F F F"
X       10.00000000      10.00000000      10.00000000       0.30214551       0.94181817      -0.12149100       0.08322592       1.00000000       2.00000000       1.00000000       0.34142548       0.23679631       0.20129989       0.04045700       0.00000000      -0.23051539
X       11.56458254      11.20254583      11.40901242       0.42304147      -0.21475400       0.21018977       0.85483150       1.00000000       2.00000000       1.00000000      -0.34142548      -0.23679631      -0.20129989      -0.00728260       0.00000000      -0.18668999
2
Lattice="20.0 0.0 0.0 0.0 20.0 0.0 0.0 0.0 20.0" Properties=species:S:1:pos:R:3:quaternions:R:4:c_diameter\[1\]:R:1:c_diameter\[2\]:R:1:c_diameter\[3\]:R:1:forces:R:3:torques:R:3 energy=-0.09708548417206295 pbc="F F F"
X       10.00000000      10.00000000      10.00000000      -0.42381240       0.20586521       0.31274912       0.82473666       1.00000000       2.00000000       1.00000000       0.16235338       0.09586885       0.20007821       0.09505710      -0.00000000       0.00851971
X       11.78562050      11.08186665      11.06113967       0.65045252      -0.07934288      -0.55106899       0.51666159       1.00000000       2.00000000       1.00000000      -0.16235338      -0.09586885      -0.20007821      -0.04323867      -0.00000000      -0.11547687
2
Lattice="20.0 0.0 0.0 0.0 20.0 0.0 0.0 0.0 20.0" Properties=species:S:1:pos:R:3:quaternions:R:4:c_diameter\[1\]:R:1:c_diameter\[2\]:R:1:c_diameter\[3\]:R:1:forces:R:3:torques:R:3 energy=-0.05730491973520284 pbc="F F F"
X       10.00000000      10.00000000      10.00000000       0.56017773       0.72722152       0.03552423       0.39507948       1.00000000       2.00000000       1.00000000       0.09901710       0.09025792       0.06576794       0.02939879      -0.00000000      -0.00613497
X       11.85019021      11.08938071      11.26255388       0.57172382       0.51371181      -0.56786126      -0.29456009       1.00000000       2.00000000       1.00000000      -0.09901710      -0.09025792      -0.06576794       0.07501583       0.00000000       0.03430938
2
Lattice="20.0 0.0 0.0 0.0 20.0 0.0 0.0 0.0 20.0" Properties=species:S:1:pos:R:3:quaternions:R:4:c_diameter\[1\]:R:1:c_diameter\[2\]:R:1:c_diameter\[3\]:R:1:forces:R:3:torques:R:3 energy=-0.029973999829076017 pbc="F F F"
X       10.00000000      10.00000000      10.00000000      -0.24314899       0.53277900       0.30074745       0.75271248       1.00000000       2.00000000       1.00000000       0.04283617       0.03296743       0.03002874       0.01093977      -0.00000000      -0.01801974
X       11.47968383      11.93560886      11.08536746       0.15742745      -0.33123189      -0.14054898       0.91964559       1.00000000       2.00000000       1.00000000      -0.04283617      -0.03296743      -0.03002874      -0.01793656      -0.00000000       0.02664660
2
Lattice="20.0 0.0 0.0 0.0 20.0 0.0 0.0 0.0 20.0" Properties=species:S:1:pos:R:3:quaternions:R:4:c_diameter\[1\]:R:1:c_diameter\[2\]:R:1:c_diameter\[3\]:R:1:forces:R:3:torques:R:3 energy=-0.13974208460530893 pbc="F F F"
X       10.00000000      10.00000000      10.00000000       0.96217362      -0.23331371       0.01308762       0.14005486       1.00000000       2.00000000       1.00000000       0.23849119       0.10457991       0.23019326      -0.09459663      -0.00000000       0.19536612
X       11.75842923      11.64238074      11.70537940      -0.12588358       0.53442069      -0.37783319       0.74551320       1.00000000       2.00000000       1.00000000      -0.23849119      -0.10457991      -0.23019326       0.04471488      -0.00000000      -0.09606784
2
Lattice="20.0 0.0 0.0 0.0 20.0 0.0 0.0 0.0 20.0" Properties=species:S:1:pos:R:3:quaternions:R:4:c_diameter\[1\]:R:1:c_diameter\[2\]:R:1:c_diameter\[3\]:R:1:forces:R:3:torques:R:3 energy=-0.06286580832234206 pbc="F F F"
X       10.00000000      10.00000000      10.00000000       0.46705155      -0.27567835       0.37748072       0.75058151       1.00000000       2.00000000       1.00000000       0.04154828       0.11716769       0.08370601       0.00179046      -0.00000000      -0.08866009
X       11.41420146      11.55602705      11.68126222       0.74027089      -0.31781409      -0.19246349       0.56031332       1.00000000       2.00000000       1.00000000      -0.04154828      -0.11716769      -0.08370601      -0.02171216       0.00000000      -0.09046893
2
Lattice="20.0 0.0 0.0 0.0 20.0 0.0 0.0 0.0 20.0" Properties=species:S:1:pos:R:3:quaternions:R:4:c_diameter\[1\]:R:1:c_diameter\[2\]:R:1:c_diameter\[3\]:R:1:forces:R:3:torques:R:3 energy=-0.03564001808481568 pbc="F F F"
X       10.00000000      10.00000000      10.00000000      -0.12859788      -0.01266621       0.72799137       0.67329839       1.00000000       2.00000000       1.00000000       0.05182806       0.05315502       0.03275314      -0.03044047      -0.00000000      -0.02194112
X       11.40054501      11.53630974      11.41313429       0.09407656       0.86615579       0.38505965       0.30438925       1.00000000       2.00000000       1.00000000      -0.05182806      -0.05315502      -0.03275314      -0.00248677       0.00000000       0.00107970
2
Lattice="20.0 0.0 0.0 0.0 20.0 0.0 0.0 0.0 20.0" Properties=species:S:1:pos:R:3:quaternions:R:4:c_diameter\[1\]:R:1:c_diameter\[2\]:R:1:c_diameter\[3\]:R:1:forces:R:3:torques:R:3 energy=-0.14240242757541097 pbc="F F F"
X       10.00000000      10.00000000      10.00000000       0.64759848       0.14252474       0.72189932       0.19789965       1.00000000       2.00000000       1.00000000       0.22547343       0.17651246       0.31825398       0.10772875      -0.00000000       0.21538193
X       11.42826503      11.20953048      11.89729949      -0.06975902       0.35966405       0.73124428       0.57537575       1.00000000       2.00000000       1.00000000      -0.22547343      -0.17651246      -0.31825398      -0.17251613       0.00000000       0.04535431
2
Lattice="20.0 0.0 0.0 0.0 20.0 0.0 0.0 0.0 20.0" Properties=species:S:1:pos:R:3:quaternions:R:4:c_diameter\[1\]:R:1:c_diameter\[2\]:R:1:c_diameter\[3\]:R:1:forces:R:3:torques:R:3 energy=-0.04851374833585887 pbc="F F F"
X       10.00000000      10.00000000      10.00000000      -0.40126080       0.88694769      -0.02977586      -0.22677512       1.00000000       2.00000000       1.00000000       0.07966907       0.06447670       0.06557535       0.02155452      -0.00000000       0.00198639
X       11.19623180      11.36178844      11.65019637       0.79574457      -0.23238126      -0.41091661      -0.37939039       1.00000000       2.00000000       1.00000000      -0.07966907      -0.06447670      -0.06557535      -0.05721999      -0.00000000       0.02412806
2
Lattice="20.0 0.0 0.0 0.0 20.0 0.0 0.0 0.0 20.0" Properties=species:S:1:pos:R:3:quaternions:R:4:c_diameter\[1\]:R:1:c_diameter\[2\]:R:1:c_diameter\[3\]:R:1:forces:R:3:torques:R:3 energy=-0.0187123471078526 pbc="F F F"
X       10.00000000      10.00000000      10.00000000       0.51433996       0.12379617      -0.22949538       0.81698273       1.00000000       2.00000000       1.00000000       0.02465150       0.01229383       0.01536594       0.00610869       0.00000000       0.00508647
X       11.82416321      11.45880772      11.94911476       0.74689790      -0.48159074       0.44924340       0.09162015       1.00000000       2.00000000       1.00000000      -0.02465150      -0.01229383      -0.01536594       0.01404159       0.00000000       0.00805241
2
Lattice="20.0 0.0 0.0 0.0 20.0 0.0 0.0 0.0 20.0" Properties=species:S:1:pos:R:3:quaternions:R:4:c_diameter\[1\]:R:1:c_diameter\[2\]:R:1:c_diameter\[3\]:R:1:forces:R:3:torques:R:3 energy=-0.21806782364644625 pbc="F F F"
X       10.00000000      10.00000000      10.00000000      -0.48448238       0.19542601      -0.39327852       0.75658278       1.00000000       2.00000000       1.00000000       0.11065931       0.42582573       0.47913495      -0.08163478       0.00000000      -0.35117668
X       11.34785998      11.50846011      11.70546910      -0.45074729       0.51673472       0.72710890      -0.03353728       1.00000000       2.00000000       1.00000000      -0.11065931      -0.42582573      -0.47913495       0.25825320      -0.00000000      -0.07614651
2
Lattice="20.0 0.0 0.0 0.0 20.0 0.0 0.0 0.0 20.0" Properties=species:S:1:pos:R:3:quaternions:R:4:c_diameter\[1\]:R:1:c_diameter\[2\]:R:1:c_diameter\[3\]:R:1:forces:R:3:torques:R:3 energy=-0.028725384763564368 pbc="F F F"
X       10.00000000      10.00000000      10.00000000      -0.34463022       0.69305150      -0.41392232       0.47914291       1.00000000       2.00000000       1.00000000       0.02326881       0.02642567       0.04732306      -0.01767686       0.00000000      -0.02767133
X       11.25021363      11.61244598      11.87145108       0.83894945       0.02767760      -0.43957523      -0.31964260       1.00000000       2.00000000       1.00000000      -0.02326881      -0.02642567      -0.04732306      -0.02175441       0.00000000      -0.00553237
2
Lattice="20.0 0.0 0.0 0.0 20.0 0.0 0.0 0.0 20.0" Properties=species:S:1:pos:R:3:quaternions:R:4:c_diameter\[1\]:R:1:c_diameter\[2\]:R:1:c_diameter\[3\]:R:1:forces:R:3:torques:R:3 energy=-0.02175484909271111 pbc="F F F"
X       10.00000000      10.00000000      10.00000000      -0.33745775      -0.16876861       0.69452802      -0.61259305       1.00000000       2.00000000       1.00000000       0.02046223       0.03208296       0.01224974       0.00258247      -0.00000000       0.00992608
X       11.85817349      11.86452156      11.21208110      -0.58267574       0.60860997       0.30390744      -0.44466072       1.00000000       2.00000000       1.00000000      -0.02046223      -0.03208296      -0.01224974       0.02215533      -0.00000000      -0.01034751
2
Lattice="20.0 0.0 0.0 0.0 20.0 0.0 0.0 0.0 20.0" Properties=species:S:1:pos:R:3:quaternions:R:4:c_diameter\[1\]:R:1:c_diameter\[2\]:R:1:c_diameter\[3\]:R:1:forces:R:3:torques:R:3 energy=-0.050232910202885325 pbc="F F F"
X       10.00000000      10.00000000      10.00000000       0.49641427       0.22752833       0.37619149       0.74852100       1.00000000       2.00000000       1.00000000       0.05239861       0.08755903       0.06842356      -0.06053208      -0.00000000      -0.00596163
X       11.42389103      11.53648805      11.38879525       0.92272032      -0.01004801       0.24006903      -0.30141850       1.00000000       2.00000000       1.00000000      -0.05239861      -0.08755903      -0.06842356      -0.00723863       0.00000000       0.00681237
2
Lattice="20.0 0.0 0.0 0.0 20.0 0.0 0.0 0.0 20.0" Properties=species:S:1:pos:R:3:quaternions:R:4:c_diameter\[1\]:R:1:c_diameter\[2\]:R:1:c_diameter\[3\]:R:1:forces:R:3:torques:R:3 energy=-0.03263384832256376 pbc="F F F"
X       10.00000000      10.00000000      10.00000000       0.50571668      -0.08502406       0.52426355       0.67983033       1.00000000       2.00000000       1.00000000       0.02084368       0.05255872       0.03051097      -0.03468327      -0.00000000      -0.01531004
X       11.19704130      11.81678636      11.94650609       0.67116347       0.52648470       0.47212574      -0.22237524       1.00000000       2.00000000       1.00000000      -0.02084368      -0.05255872      -0.03051097      -0.00940662      -0.00000000      -0.02846570
2
Lattice="20.0 0.0 0.0 0.0 20.0 0.0 0.0 0.0 20.0" Properties=species:S:1:pos:R:3:quaternions:R:4:c_diameter\[1\]:R:1:c_diameter\[2\]:R:1:c_diameter\[3\]:R:1:forces:R:3:torques:R:3 energy=-0.15533662755223246 pbc="F F F"
X       10.00000000      10.00000000      10.00000000       0.44066201      -0.51303299      -0.44428432       0.58755900       1.00000000       2.00000000       1.00000000       0.24831015       0.31691820       0.40114683       0.07661209       0.00000000      -0.12457157
X       11.03821398      11.52416821      11.16031027      -0.01006015      -0.50315523       0.01857109       0.86393792       1.00000000       2.00000000       1.00000000      -0.24831015      -0.31691820      -0.40114683       0.01182142       0.00000000       0.29925582
2
Lattice="20.0 0.0 0.0 0.0 20.0 0.0 0.0 0.0 20.0" Properties=species:S:1:pos:R:3:quaternions:R:4:c_diameter\[1\]:R:1:c_diameter\[2\]:R:1:c_diameter\[3\]:R:1:forces:R:3:torques:R:3 energy=-0.10878047120604666 pbc="F F F"
X       10.00000000      10.00000000      10.00000000       0.24044115       0.24291504       0.84645480       0.40828253       1.00000000       2.00000000       1.00000000       0.16283586       0.19624606       0.18541050      -0.01384811       0.00000000      -0.00769671
X       11.62095972      11.48012265      11.44199046       0.58251599       0.48243363       0.25145475       0.60390680       1.00000000       2.00000000       1.00000000      -0.16283586      -0.19624606      -0.18541050      -0.09946374      -0.00000000       0.03398738
2
Lattice="20.0 0.0 0.0 0.0 20.0 0.0 0.0 0.0 20.0" Properties=species:S:1:pos:R:3:quaternions:R:4:c_diameter\[1\]:R:1:c_diameter\[2\]:R:1:c_diameter\[3\]:R:1:forces:R:3:torques:R:3 energy=-0.06385972782303542 pbc="F F F"
X       10.00000000      10.00000000      10.00000000       0.03313179       0.88866304       0.32749815      -0.31925734       1.00000000       2.00000000       1.00000000       0.08562490       0.14034163       0.04840963      -0.05344231      -0.00000000      -0.05629351
X       11.08689721      11.95049308      11.15751859      -0.57936814       0.70371237       0.40125298      -0.09009719       1.00000000       2.00000000       1.00000000      -0.08562490      -0.14034163      -0.04840963       0.06829569       0.00000000       0.06059420
2
Lattice="20.0 0.0 0.0 0.0 20.0 0.0 0.0 0.0 20.0" Properties=species:S:1:pos:R:3:quaternions:R:4:c_diameter\[1\]:R:1:c_diameter\[2\]:R:1:c_diameter\[3\]:R:1:forces:R:3:torques:R:3 energy=-0.02132145452852557 pbc="F F F"
X       10.00000000      10.00000000      10.00000000      -0.64948392       0.72733309      -0.05844747      -0.21387170       1.00000000       2.00000000       1.00000000       0.02662476       0.02294921       0.01668760       0.01999118      -0.00000000       0.00681736
X       11.62775197      11.91905683      11.61175657       0.85419359       0.03450475      -0.51284087      -0.07846644       1.00000000       2.00000000       1.00000000      -0.02662476      -0.02294921      -0.01668760      -0.02170813      -0.00000000      -0.00042043
2
Lattice="20.0 0.0 0.0 0.0 20.0 0.0 0.0 0.0 20.0" Properties=species:S:1:pos:R:3:quaternions:R:4:c_diameter\[1\]:R:1:c_diameter\[2\]:R:1:c_diameter\[3\]:R:1:forces:R:3:torques:R:3 energy=-0.11740826319589691 pbc="F F F"
X       10.00000000      10.00000000      10.00000000       0.55007751      -0.37231016       0.74643807      -0.04037431       1.00000000       2.00000000       1.00000000       0.22580547       0.16799642       0.29761589       0.10200899      -0.00000000       0.04259717
X       11.08079167      11.13491429      11.33804484       0.68517130       0.46753016       0.54465319       0.12372852       1.00000000       2.00000000       1.00000000      -0.22580547      -0.16799642      -0.29761589       0.01033569      -0.00000000       0.11454692
2
Lattice="20.0 0.0 0.0 0.0 20.0 0.0 0.0 0.0 20.0" Properties=species:S:1:pos:R:3:quaternions:R:4:c_diameter\[1\]:R:1:c_diameter\[2\]:R:1:c_diameter\[3\]:R:1:forces:R:3:torques:R:3 energy=-0.07063457137870968 pbc="F F F"
X       10.00000000      10.00000000      10.00000000      -0.19593627       0.92401458       0.21413414      -0.24890280       1.00000000       2.00000000       1.00000000       0.09662250       0.11880119       0.13379972      -0.00772383      -0.00000000       0.01076292
X       11.42720092      11.29093499      11.20857878      -0.52209547      -0.30725791       0.41785736       0.67705548       1.00000000       2.00000000       1.00000000      -0.09662250      -0.11880119      -0.13379972       0.07659633       0.00000000       0.05308050
2
Lattice="20.0 0.0 0.0 0.0 20.0 0.0 0.0 0.0 20.0" Properties=species:S:1:pos:R:3:quaternions:R:4:c_diameter\[1\]:R:1:c_diameter\[2\]:R:1:c_diameter\[3\]:R:1:forces:R:3:torques:R:3 energy=-0.07387817922510422 pbc="F F F"
X       10.00000000      10.00000000      10.00000000      -0.05104597      -0.20777376      -0.54049784       0.81368695       1.00000000       2.00000000       1.00000000       0.15080006       0.06320893       0.04989717      -0.05249983      -0.00000000       0.06864383
X       11.75160723      11.24204393      11.58470873       0.28114454      -0.25211441       0.79633250       0.47249403       1.00000000       2.00000000       1.00000000      -0.15080006      -0.06320893      -0.04989717       0.04577097      -0.00000000      -0.07281392
2
Lattice="20.0 0.0 0.0 0.0 20.0 0.0 0.0 0.0 20.0" Properties=species:S:1:pos:R:3:quaternions:R:4:c_diameter\[1\]:R:1:c_diameter\[2\]:R:1:c_diameter\[3\]:R:1:forces:R:3:torques:R:3 energy=-0.03289852021142891 pbc="F F F"
X       10.00000000      10.00000000      10.00000000      -0.09827921      -0.02257863       0.91832058      -0.38277763       1.00000000       2.00000000       1.00000000       0.03148029       0.03708870       0.05185260      -0.00982818       0.00000000       0.01747596
X       11.04613766      11.12489356      11.98580309       0.20665656      -0.13413118       0.09662241       0.96434745       1.00000000       2.00000000       1.00000000      -0.03148029      -0.03708870      -0.05185260      -0.00468048      -0.00000000       0.00642997
2
Lattice="20.0 0.0 0.0 0.0 20.0 0.0 0.0 0.0 20.0" Properties=species:S:1:pos:R:3:quaternions:R:4:c_diameter\[1\]:R:1:c_diameter\[2\]:R:1:c_diameter\[3\]:R:1:forces:R:3:torques:R:3 energy=-0.01341883492914948 pbc="F F F"
X       10.00000000      10.00000000      10.00000000       0.41774532       0.49124360       0.48577834       0.59007455       1.00000000       2.00000000       1.00000000       0.01073645       0.01193433       0.01309804      -0.00777538       0.00000000       0.00694771
X       11.78149005      11.97152872      11.91483886       0.13382753      -0.31296869      -0.18177809       0.92254947       1.00000000       2.00000000       1.00000000      -0.01073645      -0.01193433      -0.01309804       0.00022093      -0.00000000       0.01007730
2
Lattice="20.0 0.0 0.0 0.0 20.0 0.0 0.0 0.0 20.0" Properties=species:S:1:pos:R:3:quaternions:R:4:c_diameter\[1\]:R:1:c_diameter\[2\]:R:1:c_diameter\[3\]:R:1:forces:R:3:torques:R:3 energy=-0.11106517308793293 pbc="F F F"
X       10.00000000      10.00000000      10.00000000       0.43693466       0.62501971       0.09650760       0.63962860       1.00000000       2.00000000       1.00000000       0.24764562       0.19964189       0.18187336       0.07404621      -0.00000000      -0.06631809
X       11.05709623      11.23408674      11.30549465      -0.07857349      -0.29339926       0.70174481       0.64443564       1.00000000       2.00000000       1.00000000      -0.24764562      -0.19964189      -0.18187336      -0.06228101       0.00000000      -0.07779623
2
Lattice="20.0 0.0 0.0 0.0 20.0 0.0 0.0 0.0 20.0" Properties=species:S:1:pos:R:3:quaternions:R:4:c_diameter\[1\]:R:1:c_diameter\[2\]:R:1:c_diameter\[3\]:R:1:forces:R:3:torques:R:3 energy=-0.024906339875915926 pbc="F F F"
X       10.00000000      10.00000000      10.00000000      -0.31695510       0.71317374      -0.53776355      -0.31895617       1.00000000       2.00000000       1.00000000       0.03007272       0.02934165       0.02569078      -0.01534107       0.00000000       0.00038990
X       11.98811084      11.40776311      11.05684569      -0.51190255      -0.32738656       0.69446028       0.38535535       1.00000000       2.00000000       1.00000000      -0.03007272      -0.02934165      -0.02569078       0.01703784      -0.00000000       0.00636816
2
Lattice="20.0 0.0 0.0 0.0 20.0 0.0 0.0 0.0 20.0" Properties=species:S:1:pos:R:3:quaternions:R:4:c_diameter\[1\]:R:1:c_diameter\[2\]:R:1:c_diameter\[3\]:R:1:forces:R:3:torques:R:3 energy=-0.028332479246138152 pbc="F F F"
X       10.00000000      10.00000000      10.00000000       0.58453261       0.32919642      -0.16094635       0.72391133       1.00000000       2.00000000       1.00000000       0.02626322       0.03248807       0.03753652      -0.00766272       0.00000000       0.00314566
X       11.79849732      11.28436426      11.68009921       0.50198906      -0.47211491       0.57702626      -0.43835510       1.00000000       2.00000000       1.00000000      -0.02626322      -0.03248807      -0.03753652      -0.02630306       0.00000000      -0.01303473
2
Lattice="20.0 0.0 0.0 0.0 20.0 0.0 0.0 0.0 20.0" Properties=species:S:1:pos:R:3:quaternions:R:4:c_diameter\[1\]:R:1:c_diameter\[2\]:R:1:c_diameter\[3\]:R:1:forces:R:3:torques:R:3 energy=-0.19299799606868728 pbc="F F F"
X       10.00000000      10.00000000      10.00000000       0.64285079      -0.53830955      -0.43910323       0.32272905       1.00000000       2.00000000       1.00000000       0.33055142       0.46831419       0.36042891       0.27618043      -0.00000000      -0.20973789
X       11.49733645      11.12359927      11.51264109       0.65355716       0.48229395       0.43402481      -0.38971534       1.00000000       2.00000000       1.00000000      -0.33055142      -0.46831419      -0.36042891      -0.10826085       0.00000000      -0.28955566
2
Lattice="20.0 0.0 0.0 0.0 20.0 0.0 0.0 0.0 20.0" Properties=species:S:1:pos:R:3:quaternions:R:4:c_diameter\[1\]:R:1:c_diameter\[2\]:R:1:c_diameter\[3\]:R:1:forces:R:3:torques:R:3 energy=-0.06840854585351816 pbc="F F F"
X       10.00000000      10.00000000      10.00000000      -0.55269046      -0.00551066      -0.55003333       0.62607206       1.00000000       2.00000000       1.00000000       0.04768135       0.16510008       0.07124398      -0.07370758      -0.00000000      -0.04122119
X       11.11791791      11.74196337      11.08847340       0.59514373       0.34149842      -0.45319333      -0.56903302       1.00000000       2.00000000       1.00000000      -0.04768135      -0.16510008      -0.07124398       0.05697639       0.00000000       0.03252076
2
Lattice="20.0 0.0 0.0 0.0 20.0 0.0 0.0 0.0 20.0" Properties=species:S:1:pos:R:3:quaternions:R:4:c_diameter\[1\]:R:1:c_diameter\[2\]:R:1:c_diameter\[3\]:R:1:forces:R:3:torques:R:3 energy=-0.018052385740339395 pbc="F F F"
X       10.00000000      10.00000000      10.00000000       0.76991090       0.36432786       0.04892188       0.52164074       1.00000000       2.00000000       1.00000000       0.01675924       0.01974544       0.01732795      -0.00792991      -0.00000000      -0.00187020
X       11.77981373      11.49983482      11.96149681       0.48945589      -0.46423298       0.41403593       0.61114230       1.00000000       2.00000000       1.00000000      -0.01675924      -0.01974544      -0.01732795       0.00608615      -0.00000000      -0.01787686
2
Lattice="20.0 0.0 0.0 0.0 20.0 0.0 0.0 0.0 20.0" Properties=species:S:1:pos:R:3:quaternions:R:4:c_diameter\[1\]:R:1:c_diameter\[2\]:R:1:c_diameter\[3\]:R:1:forces:R:3:torques:R:3 energy=-0.08777913772751268 pbc="F F F"
X       10.00000000      10.00000000      10.00000000       0.01815342       0.80121178      -0.20856648       0.56056235       1.00000000       2.00000000       1.00000000       0.16933187       0.02824785       0.16004615       0.04629905      -0.00000000      -0.09213038
X       11.65674852      11.07680047      11.53111591       0.84146167       0.03452172       0.53649187      -0.05410157       1.00000000       2.00000000       1.00000000      -0.16933187      -0.02824785      -0.16004615       0.02862569      -0.00000000       0.07808516
2
Lattice="20.0 0.0 0.0 0.0 20.0 0.0 0.0 0.0 20.0" Properties=species:S:1:pos:R:3:quaternions:R:4:c_diameter\[1\]:R:1:c_diameter\[2\]:R:1:c_diameter\[3\]:R:1:forces:R:3:torques:R:3 energy=-0.03296574934730134 pbc="F F F"
X       10.00000000      10.00000000      10.00000000       0.89404454       0.31382783      -0.31053173      -0.07593748       1.00000000       2.00000000       1.00000000       0.04834576       0.04683077       0.02631866      -0.00446794      -0.00000000       0.00438362
X       11.41085586      11.72466004      11.33021384       0.49715105       0.72687486       0.34669732      -0.32294695       1.00000000       2.00000000       1.00000000      -0.04834576      -0.04683077      -0.02631866      -0.01623418      -0.00000000      -0.03354226
2
Lattice="20.0 0.0 0.0 0.0 20.0 0.0 0.0 0.0 20.0" Properties=species:S:1:pos:R:3:quaternions:R:4:c_diameter\[1\]:R:1:c_diameter\[2\]:R:1:c_diameter\[3\]:R:1:forces:R:3:torques:R:3 energy=-0.035848185868498604 pbc="F F F"
X       10.00000000      10.00000000      10.00000000       0.83506878      -0.14368201       0.13449479      -0.51373804       1.00000000       2.00000000       1.00000000       0.03297865       0.05541762       0.04514448       0.00701896       0.00000000      -0.00677195
X       11.16319159      11.42707230      11.95601624      -0.63889539       0.65961346      -0.15635720      -0.36369656       1.00000000       2.00000000       1.00000000      -0.03297865      -0.05541762      -0.04514448       0.04528450      -0.00000000      -0.01367484
2
Lattice="20.0 0.0 0.0 0.0 20.0 0.0 0.0 0.0 20.0" Properties=species:S:1:pos:R:3:quaternions:R:4:c_diameter\[1\]:R:1:c_diameter\[2\]:R:1:c_diameter\[3\]:R:1:forces:R:3:torques:R:3 energy=-0.06588486672256819 pbc="F F F"
X       10.00000000      10.00000000      10.00000000       0.13031989       0.48347342       0.03114343       0.86504350       1.00000000       2.00000000       1.00000000       0.11610175       0.09841634       0.09627122       0.07354091       0.00000000       0.00353380
X       11.45016640      11.34167641      11.34331741       0.45560990      -0.39808220       0.08689060       0.79145449       1.00000000       2.00000000       1.00000000      -0.11610175      -0.09841634      -0.09627122       0.01992917       0.00000000      -0.05936685
2
Lattice="20.0 0.0 0.0 0.0 20.0 0.0 0.0 0.0 20.0" Properties=species:S:1:pos:R:3:quaternions:R:4:c_diameter\[1\]:R:1:c_diameter\[2\]:R:1:c_diameter\[3\]:R:1:forces:R:3:torques:R:3 energy=-0.020853998631154825 pbc="F F F"
X       10.00000000      10.00000000      10.00000000       0.52956767      -0.00386213       0.02943140       0.84774817       1.00000000       2.00000000       1.00000000       0.00874948       0.02765981       0.01962525      -0.01259959       0.00000000      -0.00990507
X       11.49813067      11.94783255      11.96160053       0.21234435       0.67640891      -0.67007172       0.21996533       1.00000000       2.00000000       1.00000000      -0.00874948      -0.02765981      -0.01962525      -0.00146154      -0.00000000       0.01724940
2
Lattice="20.0 0.0 0.0 0.0 20.0 0.0 0.0 0.0 20.0" Properties=species:S:1:pos:R:3:quaternions:R:4:c_diameter\[1\]:R:1:c_diameter\[2\]:R:1:c_diameter\[3\]:R:1:forces:R:3:torques:R:3 energy=-0.025935706429933113 pbc="F F F"
X       10.00000000      10.00000000      10.00000000      -0.57807635       0.13686277       0.66050201      -0.45916600       1.00000000       2.00000000       1.00000000       0.02976600       0.02836422       0.03026512      -0.00389824      -0.00000000      -0.02599845
X       11.64591109      11.79063985      11.40500546      -0.54645898       0.10962563       0.58857342       0.58561603       1.00000000       2.00000000       1.00000000      -0.02976600      -0.02836422      -0.03026512      -0.01341054       0.00000000      -0.00514756
2
Lattice="20.0 0.0 0.0 0.0 20.0 0.0 0.0 0.0 20.0" Properties=species:S:1:pos:R:3:quaternions:R:4:c_diameter\[1\]:R:1:c_diameter\[2\]:R:1:c_diameter\[3\]:R:1:forces:R:3:torques:R:3 energy=-0.09182777234270717 pbc="F F F"
X       10.00000000      10.00000000      10.00000000      -0.58143974       0.38548924      -0.34364590       0.62867588       1.00000000       2.00000000       1.00000000       0.10934452       0.15680936       0.15029171       0.02039034      -0.00000000      -0.13416219
X       11.84133404      11.14660656      11.31969987      -0.18697486      -0.52124223       0.82979154      -0.06923111       1.00000000       2.00000000       1.00000000      -0.10934452      -0.15680936      -0.15029171       0.00595624       0.00000000       0.12848724
2
Lattice="20.0 0.0 0.0 0.0 20.0 0.0 0.0 0.0 20.0" Properties=species:S:1:pos:R:3:quaternions:R:4:c_diameter\[1\]:R:1:c_diameter\[2\]:R:1:c_diameter\[3\]:R:1:forces:R:3:torques:R:3 energy=-0.08400144794470851 pbc="F F F"
X       10.00000000      10.00000000      10.00000000      -0.66323659       0.67839572      -0.06620219       0.30905298       1.00000000       2.00000000       1.00000000       0.14763039       0.14373040       0.11137649       0.00236329      -0.00000000      -0.00257783
X       11.88410551      11.31439176      11.24640586       0.55498036       0.58712997      -0.19513122      -0.55605665       1.00000000       2.00000000       1.00000000      -0.14763039      -0.14373040      -0.11137649       0.08320151      -0.00000000      -0.01198180
2
Lattice="20.0 0.0 0.0 0.0 20.0 0.0 0.0 0.0 20.0" Properties=species:S:1:pos:R:3:quaternions:R:4:c_diameter\[1\]:R:1:c_diameter\[2\]:R:1:c_diameter\[3\]:R:1:forces:R:3:torques:R:3 energy=-0.0983386511552402 pbc="F F F"
X       10.00000000      10.00000000      10.00000000       0.18359174       0.34487604      -0.17819469       0.90310644       1.00000000       2.00000000       1.00000000       0.19174712       0.18777713       0.04019083       0.12774946      -0.00000000       0.09211167
X       11.24785674      11.96022115      11.00725364       0.59653238      -0.39536551       0.53862257       0.44465825       1.00000000       2.00000000       1.00000000      -0.19174712      -0.18777713      -0.04019083       0.06841266      -0.00000000      -0.13520740
2
Lattice="20.0 0.0 0.0 0.0 20.0 0.0 0.0 0.0 20.0" Properties=species:S:1:pos:R:3:quaternions:R:4:c_diameter\[1\]:R:1:c_diameter\[2\]:R:1:c_diameter\[3\]:R:1:forces:R:3:torques:R:3 energy=-0.08875469229817572 pbc="F F F"
X       10.00000000      10.00000000      10.00000000       0.06966275       0.10575772       0.17729644       0.97597560       1.00000000       2.00000000       1.00000000       0.16116990       0.09762796       0.15400844       0.05134913      -0.00000000       0.02649119
X       11.55349662      11.46735086      11.54398461       0.90115102      -0.32186680      -0.23675039       0.16816019       1.00000000       2.00000000       1.00000000      -0.16116990      -0.09762796      -0.15400844      -0.04811033       0.00000000       0.03123523
2
Lattice="20.0 0.0 0.0 0.0 20.0 0.0 0.0 0.0 20.0" Properties=species:S:1:pos:R:3:quaternions:R:4:c_diameter\[1\]:R:1:c_diameter\[2\]:R:1:c_diameter\[3\]:R:1:forces:R:3:torques:R:3 energy=-0.01561064484671994 pbc="F F F"
X       10.00000000      10.00000000      10.00000000      -0.38453309       0.70375797      -0.56697002      -0.18815955       1.00000000       2.00000000       1.00000000       0.01437729       0.01163758       0.01678347      -0.00419748      -0.00000000       0.00513227
X       11.93363789      11.96191402      11.57219113      -0.12219864      -0.60060334       0.23223764       0.75525413       1.00000000       2.00000000       1.00000000      -0.01437729      -0.01163758      -0.01678347      -0.00750962      -0.00000000       0.01375756
2
Lattice="20.0 0.0 0.0 0.0 20.0 0.0 0.0 0.0 20.0" Properties=species:S:1:pos:R:3:quaternions:R:4:c_diameter\[1\]:R:1:c_diameter\[2\]:R:1:c_diameter\[3\]:R:1:forces:R:3:torques:R:3 energy=-0.1040913613626144 pbc="F F F"
X       10.00000000      10.00000000      10.00000000       0.94477281       0.15547737      -0.27334006       0.09228402       1.00000000       2.00000000       1.00000000       0.21749613       0.18401465       0.12937304      -0.12355390       0.00000000       0.03143713
X       11.79034583      11.43261624      11.06626219      -0.02604132      -0.55310201       0.69153937      -0.46386778       1.00000000       2.00000000       1.00000000      -0.21749613      -0.18401465      -0.12937304      -0.05309792       0.00000000       0.13420683
2
Lattice="20.0 0.0 0.0 0.0 20.0 0.0 0.0 0.0 20.0" Properties=species:S:1:pos:R:3:quaternions:R:4:c_diameter\[1\]:R:1:c_diameter\[2\]:R:1:c_diameter\[3\]:R:1:forces:R:3:torques:R:3 energy=-0.10377865150119907 pbc="F F F"
X       10.00000000      10.00000000      10.00000000       0.00236538      -0.23005044       0.45512074       0.86019551       1.00000000       2.00000000       1.00000000       0.17040678       0.24408167       0.15912931       0.03620728       0.00000000       0.00298556
X       11.33021020      11.26696202      11.11559853      -0.46149021       0.80683693       0.27513718      -0.24564302       1.00000000       2.00000000       1.00000000      -0.17040678      -0.24408167      -0.15912931       0.14573676      -0.00000000       0.00514687
2
Lattice="20.0 0.0 0.0 0.0 20.0 0.0 0.0 0.0 20.0" Properties=species:S:1:pos:R:3:quaternions:R:4:c_diameter\[1\]:R:1:c_diameter\[2\]:R:1:c_diameter\[3\]:R:1:forces:R:3:torques:R:3 energy=-0.010038233440733787 pbc="F F F"
X       10.00000000      10.00000000      10.00000000      -0.18624436       0.60981539       0.59912471      -0.48423942       1.00000000       2.00000000       1.00000000       0.00628446       0.01064674       0.00723588       0.00381152      -0.00000000      -0.00254538
X       11.82340755      11.94762236      11.84499557       0.71778335       0.20784663       0.44617550      -0.49245738       1.00000000       2.00000000       1.00000000      -0.00628446      -0.01064674      -0.00723588      -0.00393493       0.00000000      -0.00685168
2
Lattice="20.0 0.0 0.0 0.0 20.0 0.0 0.0 0.0 20.0" Properties=species:S:1:pos:R:3:quaternions:R:4:c_diameter\[1\]:R:1:c_diameter\[2\]:R:1:c_diameter\[3\]:R:1:forces:R:3:torques:R:3 energy=-0.16209983361311187 pbc="F F F"
X       10.00000000      10.00000000      10.00000000       0.80048721      -0.27456588       0.14233503       0.51339511       1.00000000       2.00000000       1.00000000       0.30885880       0.23888523       0.39128658      -0.06988344      -0.00000000      -0.11265724
X       11.57187580      11.03626076      11.54815236      -0.28480791       0.88401470       0.00758204       0.37060082       1.00000000       2.00000000       1.00000000      -0.30885880      -0.23888523      -0.39128658      -0.01487536      -0.00000000      -0.08142529
2
Lattice="20.0 0.0 0.0 0.0 20.0 0.0 0.0 0.0 20.0" Properties=species:S:1:pos:R:3:quaternions:R:4:c_diameter\[1\]:R:1:c_diameter\[2\]:R:1:c_diameter\[3\]:R:1:forces:R:3:torques:R:3 energy=-0.136094134133598 pbc="F F F"
X       10.00000000      10.00000000      10.00000000       0.15363445       0.39987719       0.89780635      -0.10216871       1.00000000       2.00000000       1.00000000       0.24078415       0.28299819       0.28329358       0.20716268      -0.00000000       0.07568401
X       11.32064659      11.30868868      11.32435379      -0.58153442       0.73158545       0.23555434       0.26667322       1.00000000       2.00000000       1.00000000      -0.24078415      -0.28299819      -0.28329358       0.05504098      -0.00000000       0.18273783
2
Lattice="20.0 0.0 0.0 0.0 20.0 0.0 0.0 0.0 20.0" Properties=species:S:1:pos:R:3:quaternions:R:4:c_diameter\[1\]:R:1:c_diameter\[2\]:R:1:c_diameter\[3\]:R:1:forces:R:3:torques:R:3 energy=-0.018813814917599224 pbc="F F F"
X       10.00000000      10.00000000      10.00000000       0.03280994      -0.39107119       0.85510863       0.33878617       1.00000000       2.00000000       1.00000000       0.02229898       0.01826532       0.01491733       0.00892868      -0.00000000      -0.00931407
X       11.70160984      11.44021211      11.99691781       0.77302699       0.61962052       0.04579295      -0.12807300       1.00000000       2.00000000       1.00000000      -0.02229898      -0.01826532      -0.01491733       0.01584684       0.00000000      -0.01253107
2
Lattice="20.0 0.0 0.0 0.0 20.0 0.0 0.0 0.0 20.0" Properties=species:S:1:pos:R:3:quaternions:R:4:c_diameter\[1\]:R:1:c_diameter\[2\]:R:1:c_diameter\[3\]:R:1:forces:R:3:torques:R:3 energy=-0.04160832429093811 pbc="F F F"
X       10.00000000      10.00000000      10.00000000       0.15652205       0.97644402      -0.07182522      -0.12999642       1.00000000       2.00000000       1.00000000       0.07101976       0.04380470       0.03187740      -0.04244692       0.00000000      -0.03454714
X       11.71375528      11.89174510      11.27359687       0.57982079       0.63188761      -0.21517269       0.46714731       1.00000000       2.00000000       1.00000000      -0.07101976      -0.04380470      -0.03187740       0.04236473      -0.00000000       0.01020535
2
Lattice="20.0 0.0 0.0 0.0 20.0 0.0 0.0 0.0 20.0" Properties=species:S:1:pos:R:3:quaternions:R:4:c_diameter\[1\]:R:1:c_diameter\[2\]:R:1:c_diameter\[3\]:R:1:forces:R:3:torques:R:3 energy=-0.017046048959388122 pbc="F F F"
X       10.00000000      10.00000000      10.00000000      -0.44188975       0.85232293       0.13776093       0.24351796       1.00000000       2.00000000       1.00000000       0.01804647       0.01650483       0.01673600      -0.00036249       0.00000000       0.00883868
X       11.62476567      11.44629033      11.79593980       0.90765894      -0.04400431       0.32530289      -0.26152802       1.00000000       2.00000000       1.00000000      -0.01804647      -0.01650483      -0.01673600       0.00336250      -0.00000000       0.00210104
2
Lattice="20.0 0.0 0.0 0.0 20.0 0.0 0.0 0.0 20.0" Properties=species:S:1:pos:R:3:quaternions:R:4:c_diameter\[1\]:R:1:c_diameter\[2\]:R:1:c_diameter\[3\]:R:1:forces:R:3:torques:R:3 energy=-0.15509450527622431 pbc="F F F"
X       10.00000000      10.00000000      10.00000000       0.87922500      -0.44781562      -0.15972388       0.03021350       1.00000000       2.00000000       1.00000000       0.44139161       0.24183786       0.20968549       0.00703385       0.00000000       0.29903764
X       11.45342279      11.34746333      11.16622376       0.76779309       0.20098099      -0.60163466       0.09020057       1.00000000       2.00000000       1.00000000      -0.44139161      -0.24183786      -0.20968549      -0.10538501       0.00000000      -0.05829072
2
Lattice="20.0 0.0 0.0 0.0 20.0 0.0 0.0 0.0 20.0" Properties=species:S:1:pos:R:3:quaternions:R:4:c_diameter\[1\]:R:1:c_diameter\[2\]:R:1:c_diameter\[3\]:R:1:forces:R:3:torques:R:3 energy=-0.02815772869185302 pbc="F F F"
X       10.00000000      10.00000000      10.00000000       0.83368087       0.14302997       0.52263589      -0.10663190       1.00000000       2.00000000       1.00000000       0.02160414       0.01763718       0.04492144       0.00111670       0.00000000       0.02630562
X       11.07587364      11.81394275      11.87926548       0.04017852      -0.32029679       0.17136768       0.93082156       1.00000000       2.00000000       1.00000000      -0.02160414      -0.01763718      -0.04492144       0.01399892      -0.00000000       0.02240782
2
Lattice="20.0 0.0 0.0 0.0 20.0 0.0 0.0 0.0 20.0" Properties=species:S:1:pos:R:3:quaternions:R:4:c_diameter\[1\]:R:1:c_diameter\[2\]:R:1:c_diameter\[3\]:R:1:forces:R:3:torques:R:3 energy=-0.027351289119451193 pbc="F F F"
X       10.00000000      10.00000000      10.00000000       0.24812283       0.95443004       0.06351447       0.15318050       1.00000000       2.00000000       1.00000000       0.04175128       0.00794769       0.02785408       0.00963081      -0.00000000      -0.02875974
X       11.97871989      11.33622301      11.60107446       0.02212598      -0.63159799       0.04764289       0.77351443       1.00000000       2.00000000       1.00000000      -0.04175128      -0.00794769      -0.02785408      -0.00757420      -0.00000000       0.02828664
2
Lattice="20.0 0.0 0.0 0.0 20.0 0.0 0.0 0.0 20.0" Properties=species:S:1:pos:R:3:quaternions:R:4:c_diameter\[1\]:R:1:c_diameter\[2\]:R:1:c_diameter\[3\]:R:1:forces:R:3:torques:R:3 energy=-0.19459774146099848 pbc="F F F"
X       10.00000000      10.00000000      10.00000000      -0.49458590      -0.07092433       0.79642669       0.34067441       1.00000000       2.00000000       1.00000000       0.44886146       0.46655160       0.20680705      -0.22749872       0.00000000      -0.21378724
X       11.07817744      11.63159960      11.31437261       0.55907651       0.81867741      -0.12017762      -0.05251756       1.00000000       2.00000000       1.00000000      -0.44886146      -0.46655160      -0.20680705       0.33732306       0.00000000      -0.14678502
2
Lattice="20.0 0.0 0.0 0.0 20.0 0.0 0.0 0.0 20.0" Properties=species:S:1:pos:R:3:quaternions:R:4:c_diameter\[1\]:R:1:c_diameter\[2\]:R:1:c_diameter\[3\]:R:1:forces:R:3:torques:R:3 energy=-0.12306862184149017 pbc="F F F"
X       10.00000000      10.00000000      10.00000000       0.87169366       0.22612740      -0.28967420      -0.32419966       1.00000000       2.00000000       1.00000000       0.32708507       0.18444995       0.14600279       0.08302510      -0.00000000      -0.06357839
X       11.71932606      11.17376112      11.12491515       0.94792121      -0.27999867       0.09015117       0.12214291       1.00000000       2.00000000       1.00000000      -0.32708507      -0.18444995      -0.14600279       0.05505292       0.00000000       0.19472594
2
Lattice="20.0 0.0 0.0 0.0 20.0 0.0 0.0 0.0 20.0" Properties=species:S:1:pos:R:3:quaternions:R:4:c_diameter\[1\]:R:1:c_diameter\[2\]:R:1:c_diameter\[3\]:R:1:forces:R:3:torques:R:3 energy=-0.0628519010974083 pbc="F F F"
X       10.00000000      10.00000000      10.00000000      -0.36673621      -0.07334858       0.10335170       0.92165230       1.00000000       2.00000000       1.00000000       0.04453178       0.09036155       0.11290577       0.07707933       0.00000000      -0.03844071
X       11.11586615      11.99890797      11.29723402       0.68177754       0.19626368       0.68643612      -0.15957884       1.00000000       2.00000000       1.00000000      -0.04453178      -0.09036155      -0.11290577       0.04935731       0.00000000       0.05576290
2
Lattice="20.0 0.0 0.0 0.0 20.0 0.0 0.0 0.0 20.0" Properties=species:S:1:pos:R:3:quaternions:R:4:c_diameter\[1\]:R:1:c_diameter\[2\]:R:1:c_diameter\[3\]:R:1:forces:R:3:torques:R:3 energy=-0.3327074353605836 pbc="F F F"
X       10.00000000      10.00000000      10.00000000       0.41162335       0.33944843       0.83659471       0.12429910       1.00000000       2.00000000       1.00000000       0.36748889       0.27252906       1.18231432       0.35445050      -0.00000000       0.35797389
X       11.09688778      11.00533311      11.58656819      -0.33361455      -0.51088007       0.17616259       0.77244393       1.00000000       2.00000000       1.00000000      -0.36748889      -0.27252906      -1.18231432       0.19895464      -0.00000000       0.49649321
2
Lattice="20.0 0.0 0.0 0.0 20.0 0.0 0.0 0.0 20.0" Properties=species:S:1:pos:R:3:quaternions:R:4:c_diameter\[1\]:R:1:c_diameter\[2\]:R:1:c_diameter\[3\]:R:1:forces:R:3:torques:R:3 energy=-0.1784964191364846 pbc="F F F"
X       10.00000000      10.00000000      10.00000000      -0.05461160       0.58641594       0.70417639       0.39657224       1.00000000       2.00000000       1.00000000       0.27239506       0.45738462       0.20680646      -0.23062930       0.00000000       0.17973073
X       11.71611512      11.30871080      11.07299906       0.52211365      -0.49045214      -0.36675344       0.59358735       1.00000000       2.00000000       1.00000000      -0.27239506      -0.45738462      -0.20680646       0.16209159       0.00000000      -0.23057642
2
Lattice="20.0 0.0 0.0 0.0 20.0 0.0 0.0 0.0 20.0" Properties=species:S:1:pos:R:3:quaternions:R:4:c_diameter\[1\]:R:1:c_diameter\[2\]:R:1:c_diameter\[3\]:R:1:forces:R:3:torques:R:3 energy=-0.057980757612346126 pbc="F F F"
X       10.00000000      10.00000000      10.00000000       0.44487947      -0.15739173      -0.09781981       0.87620853       1.00000000       2.00000000       1.00000000       0.07927683       0.11305685       0.05449816      -0.01734893       0.00000000      -0.02008968
X       11.50132168      11.48138135      11.35771582       0.39003390      -0.03610720       0.56412138       0.72686787       1.00000000       2.00000000       1.00000000      -0.07927683      -0.11305685      -0.05449816      -0.02902340       0.00000000      -0.07929304
2
Lattice="20.0 0.0 0.0 0.0 20.0 0.0 0.0 0.0 20.0" Properties=species:S:1:pos:R:3:quaternions:R:4:c_diameter\[1\]:R:1:c_diameter\[2\]:R:1:c_diameter\[3\]:R:1:forces:R:3:torques:R:3 energy=-0.0593351996403807 pbc="F F F"
X       10.00000000      10.00000000      10.00000000      -0.18297070      -0.27614305      -0.25900113       0.90729552       1.00000000       2.00000000       1.00000000       0.10462488       0.01515365       0.06639994      -0.03980293      -0.00000000       0.05316786
X       11.99257015      11.30255746      11.63912145       0.82916605      -0.11998393      -0.54582380       0.01280199       1.00000000       2.00000000       1.00000000      -0.10462488      -0.01515365      -0.06639994      -0.07149760      -0.00000000      -0.03564965
2
Lattice="20.0 0.0 0.0 0.0 20.0 0.0 0.0 0.0 20.0" Properties=species:S:1:pos:R:3:quaternions:R:4:c_diameter\[1\]:R:1:c_diameter\[2\]:R:1:c_diameter\[3\]:R:1:forces:R:3:torques:R:3 energy=-0.1703421395054286 pbc="F F F"
X       10.00000000      10.00000000      10.00000000      -0.35756396      -0.10177665      -0.04653805       0.92715896       1.00000000       2.00000000       1.00000000       0.19904639       0.47071909       0.29539061       0.21046526       0.00000000      -0.11145481
X       11.01637068      11.79277754      11.27944526      -0.69352929       0.71602354      -0.02710530       0.07478448       1.00000000       2.00000000       1.00000000      -0.19904639      -0.47071909      -0.29539061       0.19696971       0.00000000       0.11232393
2
Lattice="20.0 0.0 0.0 0.0 20.0 0.0 0.0 0.0 20.0" Properties=species:S:1:pos:R:3:quaternions:R:4:c_diameter\[1\]:R:1:c_diameter\[2\]:R:1:c_diameter\[3\]:R:1:forces:R:3:torques:R:3 energy=-0.045805660508857864 pbc="F F F"
X       10.00000000      10.00000000      10.00000000       0.15593166      -0.41813628       0.26015945       0.85625021       1.00000000       2.00000000       1.00000000       0.02725065       0.07496960       0.07690053       0.00427163      -0.00000000       0.02451070
X       11.12518629      11.75864611      11.44992840      -0.29749200       0.59214035       0.73380411      -0.14966581       1.00000000       2.00000000       1.00000000      -0.02725065      -0.07496960      -0.07690053       0.06164333       0.00000000       0.01104370
2
Lattice="20.0 0.0 0.0 0.0 20.0 0.0 0.0 0.0 20.0" Properties=species:S:1:pos:R:3:quaternions:R:4:c_diameter\[1\]:R:1:c_diameter\[2\]:R:1:c_diameter\[3\]:R:1:forces:R:3:torques:R:3 energy=-0.027814678577802725 pbc="F F F"
X       10.00000000      10.00000000      10.00000000      -0.64902199       0.66341174       0.36561854       0.07055783       1.00000000       2.00000000       1.00000000       0.03787068       0.03699489       0.01554097       0.00662922      -0.00000000       0.02889631
X       11.95671024      11.87839184      11.01591290      -0.17927452       0.65449007      -0.37810086      -0.62971671       1.00000000       2.00000000       1.00000000      -0.03787068      -0.03699489      -0.01554097      -0.01100993      -0.00000000       0.01435624
2
Lattice="20.0 0.0 0.0 0.0 20.0 0.0 0.0 0.0 20.0" Properties=species:S:1:pos:R:3:quaternions:R:4:c_diameter\[1\]:R:1:c_diameter\[2\]:R:1:c_diameter\[3\]:R:1:forces:R:3:torques:R:3 energy=-0.03970844582669611 pbc="F F F"
X       10.00000000      10.00000000      10.00000000      -0.48579725       0.50973626       0.53259969      -0.46958232       1.00000000       2.00000000       1.00000000       0.05067070       0.06060919       0.04078657       0.04502175      -0.00000000      -0.01684823
X       11.89893614      11.54135336      11.15984124      -0.45123100      -0.00650949       0.67377019       0.58513413       1.00000000       2.00000000       1.00000000      -0.05067070      -0.06060919      -0.04078657      -0.01039100      -0.00000000       0.00392183
2
Lattice="20.0 0.0 0.0 0.0 20.0 0.0 0.0 0.0 20.0" Properties=species:S:1:pos:R:3:quaternions:R:4:c_diameter\[1\]:R:1:c_diameter\[2\]:R:1:c_diameter\[3\]:R:1:forces:R:3:torques:R:3 energy=-0.12893206840896132 pbc="F F F"
X       10.00000000      10.00000000      10.00000000       0.66300265       0.18833720       0.71727282       0.10235374       1.00000000       2.00000000       1.00000000       0.28239124       0.17565203       0.26755274       0.14564774       0.00000000       0.14671301
X       11.44412663      11.30994595      11.16992739       0.22940009       0.17743488       0.85329161      -0.43334270       1.00000000       2.00000000       1.00000000      -0.28239124      -0.17565203      -0.26755274      -0.01329371      -0.00000000       0.02416850
2
Lattice="20.0 0.0 0.0 0.0 20.0 0.0 0.0 0.0 20.0" Properties=species:S:1:pos:R:3:quaternions:R:4:c_diameter\[1\]:R:1:c_diameter\[2\]:R:1:c_diameter\[3\]:R:1:forces:R:3:torques:R:3 energy=-0.2115240926759632 pbc="F F F"
X       10.00000000      10.00000000      10.00000000      -0.32486912       0.06994062       0.76062620       0.55768821       1.00000000       2.00000000       1.00000000       0.27885494       0.68493589       0.29970205      -0.37270001      -0.00000000      -0.00449305
X       11.01189820      11.78229256      11.09283634       0.77813647      -0.24524064      -0.35955658       0.45285729       1.00000000       2.00000000       1.00000000      -0.27885494      -0.68493589      -0.29970205       0.15296318      -0.00000000      -0.36498060
2
Lattice="20.0 0.0 0.0 0.0 20.0 0.0 0.0 0.0 20.0" Properties=species:S:1:pos:R:3:quaternions:R:4:c_diameter\[1\]:R:1:c_diameter\[2\]:R:1:c_diameter\[3\]:R:1:forces:R:3:torques:R:3 energy=-0.07436197494354156 pbc="F F F"
X       10.00000000      10.00000000      10.00000000      -0.00746875       0.42643524      -0.45111505       0.78395945       1.00000000       2.00000000       1.00000000       0.12007000       0.09794322       0.02720494       0.02766299       0.00000000       0.04490603
X       11.91529330      11.87147538      11.44424001      -0.13485965       0.22989513       0.79762480       0.54106911       1.00000000       2.00000000       1.00000000      -0.12007000      -0.09794322      -0.02720494      -0.10666172      -0.00000000      -0.02830266
2
Lattice="20.0 0.0 0.0 0.0 20.0 0.0 0.0 0.0 20.0" Properties=species:S:1:pos:R:3:quaternions:R:4:c_diameter\[1\]:R:1:c_diameter\[2\]:R:1:c_diameter\[3\]:R:1:forces:R:3:torques:R:3 energy=-0.029808980700526594 pbc="F F F"
X       10.00000000      10.00000000      10.00000000      -0.33561153       0.58558156       0.62121796      -0.39818009       1.00000000       2.00000000       1.00000000       0.01270576       0.04227122       0.03795352       0.02140203       0.00000000      -0.02054525
X       11.29936837      11.56579416      11.97477336       0.14553668       0.39903951       0.59294579       0.68410659       1.00000000       2.00000000       1.00000000      -0.01270576      -0.04227122      -0.03795352      -0.03535953       0.00000000       0.00622657
2
Lattice="20.0 0.0 0.0 0.0 20.0 0.0 0.0 0.0 20.0" Properties=species:S:1:pos:R:3:quaternions:R:4:c_diameter\[1\]:R:1:c_diameter\[2\]:R:1:c_diameter\[3\]:R:1:forces:R:3:torques:R:3 energy=-0.03754685681042249 pbc="F F F"
X       10.00000000      10.00000000      10.00000000       0.53268211      -0.43542033      -0.38740200       0.61366000       1.00000000       2.00000000       1.00000000       0.02808051       0.05018049       0.06257042       0.02357392      -0.00000000      -0.02799679
X       11.31686123      11.57132900      11.50390553      -0.33397436       0.41338365       0.13811958       0.83576197       1.00000000       2.00000000       1.00000000      -0.02808051      -0.05018049      -0.06257042       0.03098055       0.00000000      -0.01476065
2
Lattice="20.0 0.0 0.0 0.0 20.0 0.0 0.0 0.0 20.0" Properties=species:S:1:pos:R:3:quaternions:R:4:c_diameter\[1\]:R:1:c_diameter\[2\]:R:1:c_diameter\[3\]:R:1:forces:R:3:torques:R:3 energy=-0.01661915251194127 pbc="F F F"
X       10.00000000      10.00000000      10.00000000       0.27996232      -0.04123074       0.95461211       0.09293461       1.00000000       2.00000000       1.00000000       0.01908123       0.00892798       0.01485959       0.01500722       0.00000000       0.00056615
X       11.83221676      11.97249486      11.81617873       0.07183408       0.90357083       0.36153336      -0.21838787       1.00000000       2.00000000       1.00000000      -0.01908123      -0.00892798      -0.01485959      -0.00854129      -0.00000000      -0.01211713
2
Lattice="20.0 0.0 0.0 0.0 20.0 0.0 0.0 0.0 20.0" Properties=species:S:1:pos:R:3:quaternions:R:4:c_diameter\[1\]:R:1:c_diameter\[2\]:R:1:c_diameter\[3\]:R:1:forces:R:3:torques:R:3 energy=-0.06522747341213522 pbc="F F F"
X       10.00000000      10.00000000      10.00000000       0.70499343      -0.25109631      -0.21175258      -0.62856643       1.00000000       2.00000000       1.00000000       0.05477188       0.11348194       0.11758591       0.00670818      -0.00000000       0.00905459
X       11.24670695      11.47412374      11.55436511      -0.05200862       0.75961913      -0.62853785       0.15878933       1.00000000       2.00000000       1.00000000      -0.05477188      -0.11348194      -0.11758591      -0.07335983      -0.00000000       0.04704104
2
Lattice="20.0 0.0 0.0 0.0 20.0 0.0 0.0 0.0 20.0" Properties=species:S:1:pos:R:3:quaternions:R:4:c_diameter\[1\]:R:1:c_diameter\[2\]:R:1:c_diameter\[3\]:R:1:forces:R:3:torques:R:3 energy=-0.08732945121324226 pbc="F F F"
X       10.00000000      10.00000000      10.00000000       0.49515160       0.65033535       0.40333940      -0.41134675       1.00000000       2.00000000       1.00000000       0.13835961       0.15689533       0.07258533      -0.07153968      -0.00000000      -0.07942034
X       11.18608362      11.53072152      11.65155621       0.57971048       0.54624223       0.47457717      -0.37460872       1.00000000       2.00000000       1.00000000      -0.13835961      -0.15689533      -0.07258533      -0.02046637      -0.00000000      -0.10780108
2
Lattice="20.0 0.0 0.0 0.0 20.0 0.0 0.0 0.0 20.0" Properties=species:S:1:pos:R:3:quaternions:R:4:c_diameter\[1\]:R:1:c_diameter\[2\]:R:1:c_diameter\[3\]:R:1:forces:R:3:torques:R:3 energy=-0.032274858785040036 pbc="F F F"
X       10.00000000      10.00000000      10.00000000       0.10782022      -0.20063915       0.14247435       0.96323403       1.00000000       2.00000000       1.00000000       0.03743693       0.02526857       0.04513704       0.02453353       0.00000000       0.01627538
X       11.11093480      11.76685557      11.95685869      -0.30098448      -0.05312613       0.90520729       0.29527227       1.00000000       2.00000000       1.00000000      -0.03743693      -0.02526857      -0.04513704      -0.01888551      -0.00000000      -0.03321405
2
Lattice="20.0 0.0 0.0 0.0 20.0 0.0 0.0 0.0 20.0" Properties=species:S:1:pos:R:3:quaternions:R:4:c_diameter\[1\]:R:1:c_diameter\[2\]:R:1:c_diameter\[3\]:R:1:forces:R:3:torques:R:3 energy=-0.01083141365122928 pbc="F F F"
X       10.00000000      10.00000000      10.00000000      -0.14654247       0.48904738       0.67234289      -0.53601586       1.00000000       2.00000000       1.00000000       0.00950024       0.00802583       0.01059271       0.00282717      -0.00000000      -0.00081950
X       11.85886441      11.66724921      11.75346199      -0.10132613       0.65593151       0.19970284       0.72083677       1.00000000       2.00000000       1.00000000      -0.00950024      -0.00802583      -0.01059271       0.00306503       0.00000000      -0.00217169
2
Lattice="20.0 0.0 0.0 0.0 20.0 0.0 0.0 0.0 20.0" Properties=species:S:1:pos:R:3:quaternions:R:4:c_diameter\[1\]:R:1:c_diameter\[2\]:R:1:c_diameter\[3\]:R:1:forces:R:3:torques:R:3 energy=-0.03382171694503227 pbc="F F F"
X       10.00000000      10.00000000      10.00000000       0.75795706       0.50900832       0.40417806      -0.05524235       1.00000000       2.00000000       1.00000000       0.05138946       0.03411718       0.03472215       0.00870920      -0.00000000      -0.01100157
X       11.52641762      11.50806112      11.78907835      -0.17451509       0.04764888       0.85968846       0.47771312       1.00000000       2.00000000       1.00000000      -0.05138946      -0.03411718      -0.03472215      -0.01015534       0.00000000      -0.04049690
2
Lattice="20.0 0.0 0.0 0.0 20.0 0.0 0.0 0.0 20.0" Properties=species:S:1:pos:R:3:quaternions:R:4:c_diameter\[1\]:R:1:c_diameter\[2\]:R:1:c_diameter\[3\]:R:1:forces:R:3:torques:R:3 energy=-0.018043281864078563 pbc="F F F"
X       10.00000000      10.00000000      10.00000000      -0.29164034       0.33979948       0.65366432      -0.61008621       1.00000000       2.00000000       1.00000000       0.01413067       0.02331633       0.01582025       0.00448405       0.00000000      -0.01024501
X       11.81642308      11.77877795      11.35592084       0.34662848       0.37057235       0.40752333       0.75924276       1.00000000       2.00000000       1.00000000      -0.01413067      -0.02331633      -0.01582025      -0.01490965      -0.00000000      -0.00491917
2
Lattice="20.0 0.0 0.0 0.0 20.0 0.0 0.0 0.0 20.0" Properties=species:S:1:pos:R:3:quaternions:R:4:c_diameter\[1\]:R:1:c_diameter\[2\]:R:1:c_diameter\[3\]:R:1:forces:R:3:torques:R:3 energy=-0.039025430041836874 pbc="F F F"
X       10.00000000      10.00000000      10.00000000       0.30608963      -0.31124904      -0.03810659       0.89887767       1.00000000       2.00000000       1.00000000       0.03455306       0.06114692       0.05110545      -0.00573075      -0.00000000       0.00845730
X       11.14766476      11.54954184      11.90073226      -0.42056111       0.00155922      -0.63920664       0.64384842       1.00000000       2.00000000       1.00000000      -0.03455306      -0.06114692      -0.05110545      -0.04287661      -0.00000000      -0.01848489
2
Lattice="20.0 0.0 0.0 0.0 20.0 0.0 0.0 0.0 20.0" Properties=species:S:1:pos:R:3:quaternions:R:4:c_diameter\[1\]:R:1:c_diameter\[2\]:R:1:c_diameter\[3\]:R:1:forces:R:3:torques:R:3 energy=-0.030976371851513407 pbc="F F F"
X       10.00000000      10.00000000      10.00000000      -0.05683343       0.03103909       0.93150511       0.35791725       1.00000000       2.00000000       1.00000000       0.05181714       0.02124106       0.02136778       0.00198170      -0.00000000      -0.02856547
X       11.98779977      11.52144512      11.47497089       0.22856770      -0.23412247      -0.45155343       0.83008613       1.00000000       2.00000000       1.00000000      -0.05181714      -0.02124106      -0.02136778      -0.01022742      -0.00000000       0.01970846
2
Lattice="20.0 0.0 0.0 0.0 20.0 0.0 0.0 0.0 20.0" Properties=species:S:1:pos:R:3:quaternions:R:4:c_diameter\[1\]:R:1:c_diameter\[2\]:R:1:c_diameter\[3\]:R:1:forces:R:3:torques:R:3 energy=-0.09616984444835479 pbc="F F F"
X       10.00000000      10.00000000      10.00000000       0.77872735      -0.02622494       0.62469322      -0.05152030       1.00000000       2.00000000       1.00000000       0.17450347       0.15448545       0.18422114       0.06051336       0.00000000       0.12900907
X       11.24266219      11.46534197      11.20591279      -0.28569820       0.81104085       0.34843335      -0.37307301       1.00000000       2.00000000       1.00000000      -0.17450347      -0.15448545      -0.18422114       0.04390438      -0.00000000      -0.01895449
2
Lattice="20.0 0.0 0.0 0.0 20.0 0.0 0.0 0.0 20.0" Properties=species:S:1:pos:R:3:quaternions:R:4:c_diameter\[1\]:R:1:c_diameter\[2\]:R:1:c_diameter\[3\]:R:1:forces:R:3:torques:R:3 energy=-0.09854884962921678 pbc="F F F"
X       10.00000000      10.00000000      10.00000000       0.49257901      -0.29577224       0.21306657       0.79024511       1.00000000       2.00000000       1.00000000       0.14790534       0.20339102       0.12265350      -0.00931728      -0.00000000      -0.11198794
X       11.28019347      11.72460775      11.53376323       0.90768374      -0.31276490       0.19426748       0.20136658       1.00000000       2.00000000       1.00000000      -0.14790534      -0.20339102      -0.12265350       0.06825232       0.00000000       0.07714894
2
Lattice="20.0 0.0 0.0 0.0 20.0 0.0 0.0 0.0 20.0" Properties=species:S:1:pos:R:3:quaternions:R:4:c_diameter\[1\]:R:1:c_diameter\[2\]:R:1:c_diameter\[3\]:R:1:forces:R:3:torques:R:3 energy=-0.05872646892150315 pbc="F F F"
X       10.00000000      10.00000000      10.00000000       0.01797556       0.87108793      -0.00599701      -0.49076139       1.00000000       2.00000000       1.00000000       0.09769456       0.04257407       0.10125847      -0.07638771      -0.00000000      -0.01005825
X       11.54245969      11.36920789      11.35702761      -0.33064264       0.45104244       0.17509714       0.81029449       1.00000000       2.00000000       1.00000000      -0.09769456      -0.04257407      -0.10125847       0.03440592      -0.00000000      -0.04396849
2
Lattice="20.0 0.0 0.0 0.0 20.0 0.0 0.0 0.0 20.0" Properties=species:S:1:pos:R:3:quaternions:R:4:c_diameter\[1\]:R:1:c_diameter\[2\]:R:1:c_diameter\[3\]:R:1:forces:R:3:torques:R:3 energy=-1.3731262768039108 pbc="F F F"
X       10.00000000      10.00000000      10.00000000       0.07487965      -0.52649104       0.70593691      -0.46781760       1.00000000       2.00000000       1.00000000       3.10639342       3.91571250       5.98815780      -3.47933837      -0.00000000       0.48788385
X       11.24339296      11.04644633      11.25077095      -0.54967385       0.20715540       0.80072936      -0.11737881       1.00000000       2.00000000       1.00000000      -3.10639342      -3.91571250      -5.98815780       0.55480619      -0.00000000      -3.52536301
2
Lattice="20.0 0.0 0.0 0.0 20.0 0.0 0.0 0.0 20.0" Properties=species:S:1:pos:R:3:quaternions:R:4:c_diameter\[1\]:R:1:c_diameter\[2\]:R:1:c_diameter\[3\]:R:1:forces:R:3:torques:R:3 energy=-0.028449755078404814 pbc="F F F"
X       10.00000000      10.00000000      10.00000000       0.25338981       0.01096063       0.92766845      -0.27405241       1.00000000       2.00000000       1.00000000       0.02632834       0.03678625       0.03185257      -0.00538834      -0.00000000       0.00348752
X       11.64356977      11.45522365      11.93177529       0.43076039      -0.02895588       0.48080146       0.76317560       1.00000000       2.00000000       1.00000000      -0.02632834      -0.03678625      -0.03185257      -0.02242700      -0.00000000      -0.01600528
2
Lattice="20.0 0.0 0.0 0.0 20.0 0.0 0.0 0.0 20.0" Properties=species:S:1:pos:R:3:quaternions:R:4:c_diameter\[1\]:R:1:c_diameter\[2\]:R:1:c_diameter\[3\]:R:1:forces:R:3:torques:R:3 energy=-0.6739071377430824 pbc="F F F"
X       10.00000000      10.00000000      10.00000000       0.44245654       0.04675232       0.73613627       0.51004884       1.00000000       2.00000000       1.00000000       1.63945940       1.89561709       0.76365405      -0.30841662       0.00000000      -1.00774833
X       11.57067565      11.58837517      11.23216204       0.68598307       0.00123866       0.55860500       0.46624687       1.00000000       2.00000000       1.00000000      -1.63945940      -1.89561709      -0.76365405      -0.11791473       0.00000000      -0.36235604
2
Lattice="20.0 0.0 0.0 0.0 20.0 0.0 0.0 0.0 20.0" Properties=species:S:1:pos:R:3:quaternions:R:4:c_diameter\[1\]:R:1:c_diameter\[2\]:R:1:c_diameter\[3\]:R:1:forces:R:3:torques:R:3 energy=-0.06294208649349894 pbc="F F F"
X       10.00000000      10.00000000      10.00000000      -0.38059036       0.11594834       0.91721272       0.02068294       1.00000000       2.00000000       1.00000000       0.09549671       0.04735952       0.07361961      -0.03633651       0.00000000      -0.06311594
X       11.86837186      11.98754449      11.17415197      -0.07244713       0.97489665      -0.17363768      -0.11907097       1.00000000       2.00000000       1.00000000      -0.09549671      -0.04735952      -0.07361961      -0.08193129       0.00000000      -0.01380702
2
Lattice="20.0 0.0 0.0 0.0 20.0 0.0 0.0 0.0 20.0" Properties=species:S:1:pos:R:3:quaternions:R:4:c_diameter\[1\]:R:1:c_diameter\[2\]:R:1:c_diameter\[3\]:R:1:forces:R:3:torques:R:3 energy=-0.10272795688310928 pbc="F F F"
X       10.00000000      10.00000000      10.00000000       0.20227089       0.77498379       0.42811490      -0.41857405       1.00000000       2.00000000       1.00000000       0.27404639       0.09171644       0.17241478      -0.05641602      -0.00000000      -0.03691355
X       11.57035858      11.00476638      11.02912932      -0.55870868       0.00415258       0.81852873      -0.13355930       1.00000000       2.00000000       1.00000000      -0.27404639      -0.09171644      -0.17241478      -0.04638145       0.00000000      -0.12237687
2
Lattice="20.0 0.0 0.0 0.0 20.0 0.0 0.0 0.0 20.0" Properties=species:S:1:pos:R:3:quaternions:R:4:c_diameter\[1\]:R:1:c_diameter\[2\]:R:1:c_diameter\[3\]:R:1:forces:R:3:torques:R:3 energy=-0.10476396526381421 pbc="F F F"
X       10.00000000      10.00000000      10.00000000       0.57882005      -0.01036288       0.64724419       0.49591826       1.00000000       2.00000000       1.00000000       0.12687260       0.08033801       0.23023209      -0.02751871      -0.00000000       0.02609526
X       11.39384613      11.34919339      11.99724419       0.01280875       0.99210761      -0.12383976      -0.01490451       1.00000000       2.00000000       1.00000000      -0.12687260      -0.08033801      -0.23023209      -0.14570563      -0.00000000      -0.07039444
2
Lattice="20.0 0.0 0.0 0.0 20.0 0.0 0.0 0.0 20.0" Properties=species:S:1:pos:R:3:quaternions:R:4:c_diameter\[1\]:R:1:c_diameter\[2\]:R:1:c_diameter\[3\]:R:1:forces:R:3:torques:R:3 energy=-0.021664537597033837 pbc="F F F"
X       10.00000000      10.00000000      10.00000000       0.14130662      -0.05070881       0.22999245       0.96154279       1.00000000       2.00000000       1.00000000       0.01506400       0.02500685       0.02986172       0.00529184      -0.00000000       0.00040575
X       11.12821626      11.61828055      11.77686397       0.42437223      -0.49737842      -0.46619356       0.59597523       1.00000000       2.00000000       1.00000000      -0.01506400      -0.02500685      -0.02986172       0.00345733       0.00000000      -0.00866815
2
Lattice="20.0 0.0 0.0 0.0 20.0 0.0 0.0 0.0 20.0" Properties=species:S:1:pos:R:3:quaternions:R:4:c_diameter\[1\]:R:1:c_diameter\[2\]:R:1:c_diameter\[3\]:R:1:forces:R:3:torques:R:3 energy=-0.042519080186933504 pbc="F F F"
X       10.00000000      10.00000000      10.00000000       0.74657995       0.58843441       0.24631500       0.18892392       1.00000000       2.00000000       1.00000000       0.06390697       0.05610279       0.06073514      -0.01133481       0.00000000       0.00380466
X       11.43797603      11.37859799      11.21753172       0.77866536       0.26378141      -0.56691964       0.05197842       1.00000000       2.00000000       1.00000000      -0.06390697      -0.05610279      -0.06073514      -0.01582613      -0.00000000      -0.00023706
2
Lattice="20.0 0.0 0.0 0.0 20.0 0.0 0.0 0.0 20.0" Properties=species:S:1:pos:R:3:quaternions:R:4:c_diameter\[1\]:R:1:c_diameter\[2\]:R:1:c_diameter\[3\]:R:1:forces:R:3:torques:R:3 energy=-0.03406413506790848 pbc="F F F"
X       10.00000000      10.00000000      10.00000000       0.72474712       0.25713012      -0.13269564       0.62531398       1.00000000       2.00000000       1.00000000       0.03071828       0.05710239       0.03968753      -0.01901270       0.00000000      -0.00464278
X       11.16783392      11.85494448      11.12119582       0.37668944      -0.54347964      -0.27042210       0.69971911       1.00000000       2.00000000       1.00000000      -0.03071828      -0.05710239      -0.03968753       0.00507523      -0.00000000       0.00563382
2
Lattice="20.0 0.0 0.0 0.0 20.0 0.0 0.0 0.0 20.0" Properties=species:S:1:pos:R:3:quaternions:R:4:c_diameter\[1\]:R:1:c_diameter\[2\]:R:1:c_diameter\[3\]:R:1:forces:R:3:torques:R:3 energy=-0.09966681476766748 pbc="F F F"
X       10.00000000      10.00000000      10.00000000      -0.13178151       0.27081018       0.94988374       0.08376374       1.00000000       2.00000000       1.00000000       0.13339623       0.11113717       0.17390229       0.05469731       0.00000000      -0.03479230
X       11.51387400      11.92277565      11.37070001      -0.17365704       0.37996977       0.06854271       0.90596253       1.00000000       2.00000000       1.00000000      -0.13339623      -0.11113717      -0.17390229       0.14492776      -0.00000000      -0.04306549
2
Lattice="20.0 0.0 0.0 0.0 20.0 0.0 0.0 0.0 20.0" Properties=species:S:1:pos:R:3:quaternions:R:4:c_diameter\[1\]:R:1:c_diameter\[2\]:R:1:c_diameter\[3\]:R:1:forces:R:3:torques:R:3 energy=-0.23433018660042446 pbc="F F F"
X       10.00000000      10.00000000      10.00000000      -0.13615728       0.63207978      -0.45727411       0.61060359       1.00000000       2.00000000       1.00000000       0.47502793       0.57936855       0.49480853      -0.19382603      -0.00000000      -0.10233028
X       11.29496131      11.42989316      11.31080128       0.67321165      -0.30487788      -0.34431342      -0.57903697       1.00000000       2.00000000       1.00000000      -0.47502793      -0.57936855      -0.49480853      -0.14326957       0.00000000       0.12327417
2
Lattice="20.0 0.0 0.0 0.0 20.0 0.0 0.0 0.0 20.0" Properties=species:S:1:pos:R:3:quaternions:R:4:c_diameter\[1\]:R:1:c_diameter\[2\]:R:1:c_diameter\[3\]:R:1:forces:R:3:torques:R:3 energy=-0.019555624281923867 pbc="F F F"
X       10.00000000      10.00000000      10.00000000       0.92956956      -0.03218519      -0.05575595      -0.36298185       1.00000000       2.00000000       1.00000000       0.02009653       0.02183541       0.01815201      -0.01236858       0.00000000       0.00650074
X       11.09394335      11.89518513      11.88690201       0.72277448      -0.59266005      -0.09939489      -0.34127962       1.00000000       2.00000000       1.00000000      -0.02009653      -0.02183541      -0.01815201       0.00707969      -0.00000000       0.01768738
2
Lattice="20.0 0.0 0.0 0.0 20.0 0.0 0.0 0.0 20.0" Properties=species:S:1:pos:R:3:quaternions:R:4:c_diameter\[1\]:R:1:c_diameter\[2\]:R:1:c_diameter\[3\]:R:1:forces:R:3:torques:R:3 energy=-0.013767060608315172 pbc="F F F"
X       10.00000000      10.00000000      10.00000000       0.77962967      -0.08738810      -0.25847768      -0.56367561       1.00000000       2.00000000       1.00000000       0.01395927       0.01118497       0.01332079       0.00153417       0.00000000       0.00185549
X       11.73926127      11.73852429      11.61021855       0.04938426       0.56241723       0.17167840       0.80732557       1.00000000       2.00000000       1.00000000      -0.01395927      -0.01118497      -0.01332079       0.00564050      -0.00000000      -0.00490181
2
Lattice="20.0 0.0 0.0 0.0 20.0 0.0 0.0 0.0 20.0" Properties=species:S:1:pos:R:3:quaternions:R:4:c_diameter\[1\]:R:1:c_diameter\[2\]:R:1:c_diameter\[3\]:R:1:forces:R:3:torques:R:3 energy=-0.09559603070427154 pbc="F F F"
X       10.00000000      10.00000000      10.00000000       0.05179561      -0.18637596       0.79142705       0.57984863       1.00000000       2.00000000       1.00000000       0.21533955       0.06257801       0.16854113       0.01472512      -0.00000000      -0.13953543
X       11.56290594      11.12452850      11.59254900       0.81564046       0.07739407       0.51812531       0.24553403       1.00000000       2.00000000       1.00000000      -0.21533955      -0.06257801      -0.16854113       0.03315229      -0.00000000       0.16016620
2
Lattice="20.0 0.0 0.0 0.0 20.0 0.0 0.0 0.0 20.0" Properties=species:S:1:pos:R:3:quaternions:R:4:c_diameter\[1\]:R:1:c_diameter\[2\]:R:1:c_diameter\[3\]:R:1:forces:R:3:torques:R:3 energy=-0.10656335669653533 pbc="F F F"
X       10.00000000      10.00000000      10.00000000      -0.38169903       0.78465479       0.48450510       0.06226968       1.00000000       2.00000000       1.00000000       0.13327218       0.16378324       0.17225199       0.09916973       0.00000000       0.15234221
X       11.90764931      11.26918141      11.71432088      -0.12152194       0.66919681      -0.48135063       0.55291014       1.00000000       2.00000000       1.00000000      -0.13327218      -0.16378324      -0.17225199      -0.05255209      -0.00000000      -0.10309317
2
Lattice="20.0 0.0 0.0 0.0 20.0 0.0 0.0 0.0 20.0" Properties=species:S:1:pos:R:3:quaternions:R:4:c_diameter\[1\]:R:1:c_diameter\[2\]:R:1:c_diameter\[3\]:R:1:forces:R:3:torques:R:3 energy=-0.051610799959957904 pbc="F F F"
X       10.00000000      10.00000000      10.00000000       0.10731619       0.92664566       0.30043755       0.19886763       1.00000000       2.00000000       1.00000000       0.07920966       0.06515511       0.06891411       0.00328114      -0.00000000      -0.05206176
X       11.04138141      11.81531407      11.28110755       0.30899393       0.01183852       0.09626978       0.94610503       1.00000000       2.00000000       1.00000000      -0.07920966      -0.06515511      -0.06891411       0.03360085      -0.00000000       0.02524567
2
Lattice="20.0 0.0 0.0 0.0 20.0 0.0 0.0 0.0 20.0" Properties=species:S:1:pos:R:3:quaternions:R:4:c_diameter\[1\]:R:1:c_diameter\[2\]:R:1:c_diameter\[3\]:R:1:forces:R:3:torques:R:3 energy=-0.03029807635271293 pbc="F F F"
X       10.00000000      10.00000000      10.00000000       0.30872323       0.85383471       0.34190661       0.24239664       1.00000000       2.00000000       1.00000000       0.04539049       0.02208352       0.03476373       0.00621062      -0.00000000      -0.01528280
X       11.50781560      11.42774688      11.64671752       0.29573470       0.43102123      -0.02370091       0.85217366       1.00000000       2.00000000       1.00000000      -0.04539049      -0.02208352      -0.03476373       0.02624402       0.00000000      -0.00305159
2
Lattice="20.0 0.0 0.0 0.0 20.0 0.0 0.0 0.0 20.0" Properties=species:S:1:pos:R:3:quaternions:R:4:c_diameter\[1\]:R:1:c_diameter\[2\]:R:1:c_diameter\[3\]:R:1:forces:R:3:torques:R:3 energy=-0.06090163595454799 pbc="F F F"
X       10.00000000      10.00000000      10.00000000       0.19149852       0.81026941      -0.21797165       0.50919560       1.00000000       2.00000000       1.00000000       0.07530203       0.04737532       0.10713599       0.05419765      -0.00000000      -0.06966949
X       11.64767547      11.61078285      11.78790809       0.14229836       0.50734594       0.84858817       0.04742781       1.00000000       2.00000000       1.00000000      -0.07530203      -0.04737532      -0.10713599       0.07853820       0.00000000       0.05096389
2
Lattice="20.0 0.0 0.0 0.0 20.0 0.0 0.0 0.0 20.0" Properties=species:S:1:pos:R:3:quaternions:R:4:c_diameter\[1\]:R:1:c_diameter\[2\]:R:1:c_diameter\[3\]:R:1:forces:R:3:torques:R:3 energy=-0.06027438952607363 pbc="F F F"
X       10.00000000      10.00000000      10.00000000       0.90373041      -0.27041138      -0.23581534      -0.23353833       1.00000000       2.00000000       1.00000000       0.10809942       0.10999067       0.04632663      -0.04042607       0.00000000       0.07725548
X       11.22960225      11.77536107      11.09257868       0.80943178       0.44531000       0.25099262      -0.28900157       1.00000000       2.00000000       1.00000000      -0.10809942      -0.10999067      -0.04632663       0.01056919      -0.00000000      -0.02984778
2
Lattice="20.0 0.0 0.0 0.0 20.0 0.0 0.0 0.0 20.0" Properties=species:S:1:pos:R:3:quaternions:R:4:c_diameter\[1\]:R:1:c_diameter\[2\]:R:1:c_diameter\[3\]:R:1:forces:R:3:torques:R:3 energy=-0.026131717791668105 pbc="F F F"
X       10.00000000      10.00000000      10.00000000       0.43049186       0.60457168       0.59357807       0.31118310       1.00000000       2.00000000       1.00000000       0.00506108       0.03145605       0.03343494       0.00193667      -0.00000000       0.02759260
X       11.37408742      11.78637874      11.95678252       0.30224909       0.67994000      -0.64945786      -0.15662558       1.00000000       2.00000000       1.00000000      -0.00506108      -0.03145605      -0.03343494       0.00660956      -0.00000000       0.02569405
2
Lattice="20.0 0.0 0.0 0.0 20.0 0.0 0.0 0.0 20.0" Properties=species:S:1:pos:R:3:quaternions:R:4:c_diameter\[1\]:R:1:c_diameter\[2\]:R:1:c_diameter\[3\]:R:1:forces:R:3:torques:R:3 energy=-0.17755645177155752 pbc="F F F"
X       10.00000000      10.00000000      10.00000000       0.37052495      -0.01071322       0.38173818       0.84668320       1.00000000       2.00000000       1.00000000       0.33868949       0.42005953       0.31918618      -0.14949113       0.00000000      -0.16094421
X       11.50751702      11.55114084      11.03968291      -0.28097297       0.05715984      -0.05235309       0.95658042       1.00000000       2.00000000       1.00000000      -0.33868949      -0.42005953      -0.31918618       0.25326282       0.00000000       0.01001721
2
Lattice="20.0 0.0 0.0 0.0 20.0 0.0 0.0 0.0 20.0" Properties=species:S:1:pos:R:3:quaternions:R:4:c_diameter\[1\]:R:1:c_diameter\[2\]:R:1:c_diameter\[3\]:R:1:forces:R:3:torques:R:3 energy=-0.11915906069760925 pbc="F F F"
X       10.00000000      10.00000000      10.00000000       0.86905825       0.01901156       0.47026983       0.15238964       1.00000000       2.00000000       1.00000000       0.27234771       0.18555450       0.19602215       0.05055095       0.00000000       0.17818001
X       11.68883607      11.27144453      11.14000518       0.31839762       0.16145129       0.33484074       0.87203103       1.00000000       2.00000000       1.00000000      -0.27234771      -0.18555450      -0.19602215      -0.11559845       0.00000000      -0.07189800
2
Lattice="20.0 0.0 0.0 0.0 20.0 0.0 0.0 0.0 20.0" Properties=species:S:1:pos:R:3:quaternions:R:4:c_diameter\[1\]:R:1:c_diameter\[2\]:R:1:c_diameter\[3\]:R:1:forces:R:3:torques:R:3 energy=-0.044271717020576654 pbc="F F F"
X       10.00000000      10.00000000      10.00000000       0.73878323       0.55403681      -0.37251117      -0.09207601       1.00000000       2.00000000       1.00000000       0.05076192       0.06324789       0.03059359       0.05735666      -0.00000000       0.01783002
X       11.81368401      11.63549948      11.83901507       0.75368468      -0.43441106       0.26178164       0.41799140       1.00000000       2.00000000       1.00000000      -0.05076192      -0.06324789      -0.03059359       0.04116989       0.00000000       0.00484420
2
Lattice="20.0 0.0 0.0 0.0 20.0 0.0 0.0 0.0 20.0" Properties=species:S:1:pos:R:3:quaternions:R:4:c_diameter\[1\]:R:1:c_diameter\[2\]:R:1:c_diameter\[3\]:R:1:forces:R:3:torques:R:3 energy=-0.4728569728282558 pbc="F F F"
X       10.00000000      10.00000000      10.00000000       0.59594536      -0.55685608      -0.56624607      -0.11885207       1.00000000       2.00000000       1.00000000       1.56819580       0.69915229       1.14097295      -0.31352048      -0.00000000       0.49221163
X       11.33731136      11.03758107      11.53464608       0.20804245       0.97134177       0.06123132       0.09728429       1.00000000       2.00000000       1.00000000      -1.56819580      -0.69915229      -1.14097295      -0.29394052      -0.00000000      -0.80651398
2
Lattice="20.0 0.0 0.0 0.0 20.0 0.0 0.0 0.0 20.0" Properties=species:S:1:pos:R:3:quaternions:R:4:c_diameter\[1\]:R:1:c_diameter\[2\]:R:1:c_diameter\[3\]:R:1:forces:R:3:torques:R:3 energy=-0.079435701652763 pbc="F F F"
X       10.00000000      10.00000000      10.00000000       0.52196182      -0.40656350       0.01524278       0.74968636       1.00000000       2.00000000       1.00000000       0.08165671       0.16335477       0.07286391       0.03944283       0.00000000      -0.08369218
X       11.70814170      11.55079253      11.22547674       0.56038906       0.64116931      -0.44679455      -0.27430028       1.00000000       2.00000000       1.00000000      -0.08165671      -0.16335477      -0.07286391       0.07342861      -0.00000000       0.04268306
2
Lattice="20.0 0.0 0.0 0.0 20.0 0.0 0.0 0.0 20.0" Properties=species:S:1:pos:R:3:quaternions:R:4:c_diameter\[1\]:R:1:c_diameter\[2\]:R:1:c_diameter\[3\]:R:1:forces:R:3:torques:R:3 energy=-0.12763085091550988 pbc="F F F"
X       10.00000000      10.00000000      10.00000000       0.83259847      -0.03425551       0.35366637      -0.42488404       1.00000000       2.00000000       1.00000000       0.12542672       0.29136283       0.24790528      -0.00374113       0.00000000      -0.05050779
X       11.15886325      11.41754403      11.56873557      -0.62256843      -0.34791483      -0.13555538       0.68774164       1.00000000       2.00000000       1.00000000      -0.12542672      -0.29136283      -0.24790528       0.10686093       0.00000000      -0.11659411
2
Lattice="20.0 0.0 0.0 0.0 20.0 0.0 0.0 0.0 20.0" Properties=species:S:1:pos:R:3:quaternions:R:4:c_diameter\[1\]:R:1:c_diameter\[2\]:R:1:c_diameter\[3\]:R:1:forces:R:3:torques:R:3 energy=-0.017753401531522106 pbc="F F F"
X       10.00000000      10.00000000      10.00000000       0.89101410       0.22032282      -0.39044197       0.07146189       1.00000000       2.00000000       1.00000000       0.01343449       0.01439022       0.02231308      -0.00997392       0.00000000      -0.00451571
X       11.23549151      11.85955354      11.85732264       0.24927015      -0.45066304       0.21517776       0.82973836       1.00000000       2.00000000       1.00000000      -0.01343449      -0.01439022      -0.02231308      -0.00064674      -0.00000000       0.00567746
2
Lattice="20.0 0.0 0.0 0.0 20.0 0.0 0.0 0.0 20.0" Properties=species:S:1:pos:R:3:quaternions:R:4:c_diameter\[1\]:R:1:c_diameter\[2\]:R:1:c_diameter\[3\]:R:1:forces:R:3:torques:R:3 energy=-0.06743041441420496 pbc="F F F"
X       10.00000000      10.00000000      10.00000000       0.63077988      -0.25045447      -0.53234074       0.50596703       1.00000000       2.00000000       1.00000000       0.08588739       0.09452970       0.13285859      -0.00986061      -0.00000000      -0.09101572
X       11.34116897      11.35540500      11.45642068       0.62866860      -0.57741863       0.51253319      -0.09313028       1.00000000       2.00000000       1.00000000      -0.08588739      -0.09452970      -0.13285859       0.01700639      -0.00000000       0.02423890
2
Lattice="20.0 0.0 0.0 0.0 20.0 0.0 0.0 0.0 20.0" Properties=species:S:1:pos:R:3:quaternions:R:4:c_diameter\[1\]:R:1:c_diameter\[2\]:R:1:c_diameter\[3\]:R:1:forces:R:3:torques:R:3 energy=-0.023860611344049605 pbc="F F F"
X       10.00000000      10.00000000      10.00000000       0.45416422      -0.49473460      -0.06895957       0.73771072       1.00000000       2.00000000       1.00000000       0.02508117       0.02951246       0.02416660       0.01590339      -0.00000000      -0.01430746
X       11.84735849      11.32760399      11.51051003      -0.15359755      -0.39726520       0.84566477       0.32161974       1.00000000       2.00000000       1.00000000      -0.02508117      -0.02951246      -0.02416660      -0.00696984       0.00000000       0.00668289
2
Lattice="20.0 0.0 0.0 0.0 20.0 0.0 0.0 0.0 20.0" Properties=species:S:1:pos:R:3:quaternions:R:4:c_diameter\[1\]:R:1:c_diameter\[2\]:R:1:c_diameter\[3\]:R:1:forces:R:3:torques:R:3 energy=-0.018618118409202935 pbc="F F F"
X       10.00000000      10.00000000      10.00000000       0.20733140       0.40010487       0.72984497      -0.51405847       1.00000000       2.00000000       1.00000000       0.02668428       0.01114668       0.01649239      -0.01070698      -0.00000000      -0.00165102
X       11.88931680      11.21350183      11.71814811       0.58282074      -0.24894613       0.77187843       0.05049263       1.00000000       2.00000000       1.00000000      -0.02668428      -0.01114668      -0.01649239       0.01318637      -0.00000000       0.00624778
2
Lattice="20.0 0.0 0.0 0.0 20.0 0.0 0.0 0.0 20.0" Properties=species:S:1:pos:R:3:quaternions:R:4:c_diameter\[1\]:R:1:c_diameter\[2\]:R:1:c_diameter\[3\]:R:1:forces:R:3:torques:R:3 energy=-0.029966008272494064 pbc="F F F"
X       10.00000000      10.00000000      10.00000000       0.73788277       0.42424898       0.50602041      -0.13958930       1.00000000       2.00000000       1.00000000       0.04717835       0.02933785       0.02864056       0.00652096       0.00000000      -0.00204851
X       11.80220877      11.19342498      11.34156568       0.48622132       0.22120993      -0.53265175       0.65645800       1.00000000       2.00000000       1.00000000      -0.04717835      -0.02933785      -0.02864056       0.01285339      -0.00000000       0.00739605
2
Lattice="20.0 0.0 0.0 0.0 20.0 0.0 0.0 0.0 20.0" Properties=species:S:1:pos:R:3:quaternions:R:4:c_diameter\[1\]:R:1:c_diameter\[2\]:R:1:c_diameter\[3\]:R:1:forces:R:3:torques:R:3 energy=-0.030618042584136744 pbc="F F F"
X       10.00000000      10.00000000      10.00000000      -0.15891849       0.94212434       0.02856490      -0.29382084       1.00000000       2.00000000       1.00000000       0.03539603       0.04293292       0.03181145      -0.02696076      -0.00000000      -0.00059667
X       11.67403790      11.83080945      11.14875862       0.03461736      -0.52902324       0.81696315      -0.22695210       1.00000000       2.00000000       1.00000000      -0.03539603      -0.04293292      -0.03181145      -0.02187201      -0.00000000       0.01792154
2
Lattice="20.0 0.0 0.0 0.0 20.0 0.0 0.0 0.0 20.0" Properties=species:S:1:pos:R:3:quaternions:R:4:c_diameter\[1\]:R:1:c_diameter\[2\]:R:1:c_diameter\[3\]:R:1:forces:R:3:torques:R:3 energy=-0.04117177752469691 pbc="F F F"
X       10.00000000      10.00000000      10.00000000       0.05865942      -0.35560809       0.08343682       0.92905342       1.00000000       2.00000000       1.00000000       0.08004751       0.03617252       0.04706357      -0.00041970       0.00000000       0.03539996
X       11.74604521      11.21692864      11.11258839       0.59583792      -0.58388959       0.54361241       0.09238873       1.00000000       2.00000000       1.00000000      -0.08004751      -0.03617252      -0.04706357       0.01513549       0.00000000      -0.00043076
2
Lattice="20.0 0.0 0.0 0.0 20.0 0.0 0.0 0.0 20.0" Properties=species:S:1:pos:R:3:quaternions:R:4:c_diameter\[1\]:R:1:c_diameter\[2\]:R:1:c_diameter\[3\]:R:1:forces:R:3:torques:R:3 energy=-0.10473180456231043 pbc="F F F"
X       10.00000000      10.00000000      10.00000000       0.50383858       0.65361929      -0.55031387       0.12681938       1.00000000       2.00000000       1.00000000       0.16282533       0.21669406       0.04940831       0.08101199       0.00000000       0.11712639
X       11.63530186      11.48929811      11.25623172       0.69049621       0.60931048       0.16887531      -0.35133581       1.00000000       2.00000000       1.00000000      -0.16282533      -0.21669406      -0.04940831      -0.01663228       0.00000000      -0.14476397
2
Lattice="20.0 0.0 0.0 0.0 20.0 0.0 0.0 0.0 20.0" Properties=species:S:1:pos:R:3:quaternions:R:4:c_diameter\[1\]:R:1:c_diameter\[2\]:R:1:c_diameter\[3\]:R:1:forces:R:3:torques:R:3 energy=-0.07749892399835834 pbc="F F F"
X       10.00000000      10.00000000      10.00000000       0.30857414       0.39520815      -0.47623265       0.72235378       1.00000000       2.00000000       1.00000000       0.13248168       0.11302340       0.09649094       0.07519920      -0.00000000       0.09230458
X       11.84011122      11.17568369      11.71557604       0.21077334       0.71392358      -0.66488678       0.06175185       1.00000000       2.00000000       1.00000000      -0.13248168      -0.11302340      -0.09649094      -0.02962884      -0.00000000       0.11006573
2
Lattice="20.0 0.0 0.0 0.0 20.0 0.0 0.0 0.0 20.0" Properties=species:S:1:pos:R:3:quaternions:R:4:c_diameter\[1\]:R:1:c_diameter\[2\]:R:1:c_diameter\[3\]:R:1:forces:R:3:torques:R:3 energy=-0.04970712215580159 pbc="F F F"
X       10.00000000      10.00000000      10.00000000       0.31131901       0.74908895      -0.56976888      -0.13156611       1.00000000       2.00000000       1.00000000       0.03443479       0.06924464       0.07712677       0.00635112      -0.00000000       0.04758356
X       11.63059480      11.45821940      11.72109167       0.72934207      -0.31427973       0.12732286      -0.59420307       1.00000000       2.00000000       1.00000000      -0.03443479      -0.06924464      -0.07712677       0.01973090      -0.00000000      -0.04331243
2
Lattice="20.0 0.0 0.0 0.0 20.0 0.0 0.0 0.0 20.0" Properties=species:S:1:pos:R:3:quaternions:R:4:c_diameter\[1\]:R:1:c_diameter\[2\]:R:1:c_diameter\[3\]:R:1:forces:R:3:torques:R:3 energy=-0.04382393851773142 pbc="F F F"
X       10.00000000      10.00000000      10.00000000       0.68432604      -0.18382768       0.58071653      -0.40084106       1.00000000       2.00000000       1.00000000       0.04715218       0.05718788       0.07641502      -0.02369987      -0.00000000      -0.02246959
X       11.51465265      11.20791850      11.48382597       0.76878056       0.04308419      -0.35616374       0.52940305       1.00000000       2.00000000       1.00000000      -0.04715218      -0.05718788      -0.07641502      -0.03515056      -0.00000000      -0.02589793
2
Lattice="20.0 0.0 0.0 0.0 20.0 0.0 0.0 0.0 20.0" Properties=species:S:1:pos:R:3:quaternions:R:4:c_diameter\[1\]:R:1:c_diameter\[2\]:R:1:c_diameter\[3\]:R:1:forces:R:3:torques:R:3 energy=-0.014012005917774526 pbc="F F F"
X       10.00000000      10.00000000      10.00000000       0.71897506       0.45170956       0.47960006       0.22139808       1.00000000       2.00000000       1.00000000       0.00746247       0.01569248       0.01439527      -0.00561060       0.00000000       0.00734558
X       11.41818027      11.89686171      11.94183813       0.36939849      -0.29226294       0.37576848       0.79807592       1.00000000       2.00000000       1.00000000      -0.00746247      -0.01569248      -0.01439527      -0.00455081       0.00000000      -0.00902646
2
Lattice="20.0 0.0 0.0 0.0 20.0 0.0 0.0 0.0 20.0" Properties=species:S:1:pos:R:3:quaternions:R:4:c_diameter\[1\]:R:1:c_diameter\[2\]:R:1:c_diameter\[3\]:R:1:forces:R:3:torques:R:3 energy=-0.10937371524889461 pbc="F F F"
X       10.00000000      10.00000000      10.00000000      -0.30613532       0.64674453       0.49968483      -0.48817799       1.00000000       2.00000000       1.00000000       0.15771249       0.22567840       0.13126490       0.13067251       0.00000000      -0.02464768
X       11.85575547      11.56654198      11.05773184       0.08374038       0.81395669      -0.52747655       0.22854002       1.00000000       2.00000000       1.00000000      -0.15771249      -0.22567840      -0.13126490      -0.01706330      -0.00000000       0.05851652
2
Lattice="20.0 0.0 0.0 0.0 20.0 0.0 0.0 0.0 20.0" Properties=species:S:1:pos:R:3:quaternions:R:4:c_diameter\[1\]:R:1:c_diameter\[2\]:R:1:c_diameter\[3\]:R:1:forces:R:3:torques:R:3 energy=-0.01960417649680409 pbc="F F F"
X       10.00000000      10.00000000      10.00000000      -0.47043066       0.76767489      -0.22619163       0.37176283       1.00000000       2.00000000       1.00000000       0.01247845       0.01970534       0.02729057      -0.00935191       0.00000000      -0.00478999
X       11.04221653      11.82202131      11.77515478       0.23851522      -0.05931803       0.93969139      -0.23784860       1.00000000       2.00000000       1.00000000      -0.01247845      -0.01970534      -0.02729057       0.01027435      -0.00000000      -0.00422223
2
Lattice="20.0 0.0 0.0 0.0 20.0 0.0 0.0 0.0 20.0" Properties=species:S:1:pos:R:3:quaternions:R:4:c_diameter\[1\]:R:1:c_diameter\[2\]:R:1:c_diameter\[3\]:R:1:forces:R:3:torques:R:3 energy=-0.24617700821517405 pbc="F F F"
X       10.00000000      10.00000000      10.00000000       0.05034714       0.52646304       0.81869860       0.22368378       1.00000000       2.00000000       1.00000000       0.27107044       0.58593739       0.41331979       0.06664039       0.00000000       0.28562498
X       11.71901664      11.52001904      11.20552188       0.29537506      -0.56885645       0.59381417      -0.48635444       1.00000000       2.00000000       1.00000000      -0.27107044      -0.58593739      -0.41331979      -0.41401421      -0.00000000      -0.04595922
2
Lattice="20.0 0.0 0.0 0.0 20.0 0.0 0.0 0.0 20.0" Properties=species:S:1:pos:R:3:quaternions:R:4:c_diameter\[1\]:R:1:c_diameter\[2\]:R:1:c_diameter\[3\]:R:1:forces:R:3:torques:R:3 energy=-0.5043554178662591 pbc="F F F"
X       10.00000000      10.00000000      10.00000000       0.98585057      -0.03329049       0.10166385       0.12905374       1.00000000       2.00000000       1.00000000       2.01625599       0.87008224       1.07018078      -0.51241005      -0.00000000       1.10526588
X       11.26729473      11.21744119      11.08398964       0.56770027       0.82144244       0.05416248       0.00389209       1.00000000       2.00000000       1.00000000      -2.01625599      -0.87008224      -1.07018078       0.30255180      -0.00000000      -1.03148207
2
Lattice="20.0 0.0 0.0 0.0 20.0 0.0 0.0 0.0 20.0" Properties=species:S:1:pos:R:3:quaternions:R:4:c_diameter\[1\]:R:1:c_diameter\[2\]:R:1:c_diameter\[3\]:R:1:forces:R:3:torques:R:3 energy=-0.06465673668908004 pbc="F F F"
X       10.00000000      10.00000000      10.00000000      -0.24410454       0.77418865      -0.49432939       0.31093948       1.00000000       2.00000000       1.00000000       0.04799418       0.06919428       0.14884926      -0.08333225       0.00000000      -0.02096147
X       11.17833400      11.11191865      11.76827685       0.87701485       0.38303597       0.22685240       0.18073845       1.00000000       2.00000000       1.00000000      -0.04799418      -0.06919428      -0.14884926      -0.00372603      -0.00000000       0.03249271
2
Lattice="20.0 0.0 0.0 0.0 20.0 0.0 0.0 0.0 20.0" Properties=species:S:1:pos:R:3:quaternions:R:4:c_diameter\[1\]:R:1:c_diameter\[2\]:R:1:c_diameter\[3\]:R:1:forces:R:3:torques:R:3 energy=-0.15810501745971103 pbc="F F F"
X       10.00000000      10.00000000      10.00000000      -0.01629585       0.06542398       0.94198250       0.32882079       1.00000000       2.00000000       1.00000000       0.37236834       0.30866303       0.25646399       0.02776406      -0.00000000      -0.27664518
X       11.15577415      11.47925771      11.43106853       0.21205324      -0.35998824       0.49884428       0.75933937       1.00000000       2.00000000       1.00000000      -0.37236834      -0.30866303      -0.25646399      -0.01773940       0.00000000      -0.13256630
2
Lattice="20.0 0.0 0.0 0.0 20.0 0.0 0.0 0.0 20.0" Properties=species:S:1:pos:R:3:quaternions:R:4:c_diameter\[1\]:R:1:c_diameter\[2\]:R:1:c_diameter\[3\]:R:1:forces:R:3:torques:R:3 energy=-0.08501272050629897 pbc="F F F"
X       10.00000000      10.00000000      10.00000000       0.59534610       0.74162516       0.03648816      -0.30695888       1.00000000       2.00000000       1.00000000       0.13389305       0.16479918       0.11283042       0.04556936       0.00000000      -0.12340358
X       11.52365927      11.33361805      11.57266124       0.60352498       0.34624339      -0.53352428      -0.48085855       1.00000000       2.00000000       1.00000000      -0.13389305      -0.16479918      -0.11283042       0.07510534      -0.00000000       0.03562125
2
Lattice="20.0 0.0 0.0 0.0 20.0 0.0 0.0 0.0 20.0" Properties=species:S:1:pos:R:3:quaternions:R:4:c_diameter\[1\]:R:1:c_diameter\[2\]:R:1:c_diameter\[3\]:R:1:forces:R:3:torques:R:3 energy=-0.046128088063801885 pbc="F F F"
X       10.00000000      10.00000000      10.00000000      -0.16150661       0.26838570       0.37910743       0.87072515       1.00000000       2.00000000       1.00000000       0.05237641       0.06607301       0.05960272      -0.01464029       0.00000000      -0.00168095
X       11.58734345      11.51323879      11.85377042       0.80510716      -0.47116225      -0.02164854       0.35963862       1.00000000       2.00000000       1.00000000      -0.05237641      -0.06607301      -0.05960272       0.01981925      -0.00000000      -0.02089512
2
Lattice="20.0 0.0 0.0 0.0 20.0 0.0 0.0 0.0 20.0" Properties=species:S:1:pos:R:3:quaternions:R:4:c_diameter\[1\]:R:1:c_diameter\[2\]:R:1:c_diameter\[3\]:R:1:forces:R:3:torques:R:3 energy=-0.045227866548416505 pbc="F F F"
X       10.00000000      10.00000000      10.00000000       0.09306345       0.04073301       0.97471980       0.19900082       1.00000000       2.00000000       1.00000000       0.07379408       0.03120595       0.07099456       0.03865571      -0.00000000      -0.04486075
X       11.53011196      11.07414099      11.86883720       0.87521141       0.30456921       0.32597998      -0.18702844       1.00000000       2.00000000       1.00000000      -0.07379408      -0.03120595      -0.07099456      -0.00555606      -0.00000000      -0.02453685
2
Lattice="20.0 0.0 0.0 0.0 20.0 0.0 0.0 0.0 20.0" Properties=species:S:1:pos:R:3:quaternions:R:4:c_diameter\[1\]:R:1:c_diameter\[2\]:R:1:c_diameter\[3\]:R:1:forces:R:3:torques:R:3 energy=-0.04396364239052565 pbc="F F F"
X       10.00000000      10.00000000      10.00000000       0.64643606       0.26290142      -0.31230561      -0.64456844       1.00000000       2.00000000       1.00000000       0.03571827       0.04322988       0.08946623       0.04719466       0.00000000       0.00442338
X       11.29769586      11.11749152      11.76762514       0.82093386       0.28686273       0.48955249       0.06415404       1.00000000       2.00000000       1.00000000      -0.03571827      -0.04322988      -0.08946623       0.00477973       0.00000000       0.03293532
2
Lattice="20.0 0.0 0.0 0.0 20.0 0.0 0.0 0.0 20.0" Properties=species:S:1:pos:R:3:quaternions:R:4:c_diameter\[1\]:R:1:c_diameter\[2\]:R:1:c_diameter\[3\]:R:1:forces:R:3:torques:R:3 energy=-0.13004774684539328 pbc="F F F"
X       10.00000000      10.00000000      10.00000000       0.61630681      -0.39906509      -0.55309216       0.39370297       1.00000000       2.00000000       1.00000000       0.25805442       0.14770046       0.22176400       0.06899022      -0.00000000      -0.19637135
X       11.90500530      11.51557029      11.23314589       0.65145251      -0.07913021       0.71806098       0.23181127       1.00000000       2.00000000       1.00000000      -0.25805442      -0.14770046      -0.22176400       0.21764451       0.00000000       0.05600826
2
Lattice="20.0 0.0 0.0 0.0 20.0 0.0 0.0 0.0 20.0" Properties=species:S:1:pos:R:3:quaternions:R:4:c_diameter\[1\]:R:1:c_diameter\[2\]:R:1:c_diameter\[3\]:R:1:forces:R:3:torques:R:3 energy=-0.024797955981817495 pbc="F F F"
X       10.00000000      10.00000000      10.00000000       0.01580916      -0.20340654       0.62847847       0.75059354       1.00000000       2.00000000       1.00000000       0.02778877       0.02987716       0.02483214      -0.00533246       0.00000000       0.00229933
X       11.98112166      11.62143688      11.09869879       0.64396816      -0.43201546       0.06381519      -0.62816819       1.00000000       2.00000000       1.00000000      -0.02778877      -0.02987716      -0.02483214      -0.00092924       0.00000000      -0.02483789
2
Lattice="20.0 0.0 0.0 0.0 20.0 0.0 0.0 0.0 20.0" Properties=species:S:1:pos:R:3:quaternions:R:4:c_diameter\[1\]:R:1:c_diameter\[2\]:R:1:c_diameter\[3\]:R:1:forces:R:3:torques:R:3 energy=-0.020638579120562377 pbc="F F F"
X       10.00000000      10.00000000      10.00000000       0.05273413       0.71259735       0.68001933       0.16431021       1.00000000       2.00000000       1.00000000       0.01799914       0.02419655       0.02166538       0.00720673      -0.00000000       0.01767230
X       11.58881758      11.96660261      11.62768805       0.20817382      -0.29057789      -0.20284985       0.91163594       1.00000000       2.00000000       1.00000000      -0.01799914      -0.02419655      -0.02166538      -0.00044998      -0.00000000       0.01481191
2
Lattice="20.0 0.0 0.0 0.0 20.0 0.0 0.0 0.0 20.0" Properties=species:S:1:pos:R:3:quaternions:R:4:c_diameter\[1\]:R:1:c_diameter\[2\]:R:1:c_diameter\[3\]:R:1:forces:R:3:torques:R:3 energy=-0.15838835320393435 pbc="F F F"
X       10.00000000      10.00000000      10.00000000      -0.09052777       0.58299858       0.78987387      -0.16738177       1.00000000       2.00000000       1.00000000       0.07131799       0.26209985       0.41301895       0.19258322      -0.00000000       0.00919859
X       11.08507681      11.29576962      11.73601533       0.12379110       0.81986684      -0.52853277       0.18206385       1.00000000       2.00000000       1.00000000      -0.07131799      -0.26209985      -0.41301895      -0.16965434      -0.00000000       0.09627178
2
Lattice="20.0 0.0 0.0 0.0 20.0 0.0 0.0 0.0 20.0" Properties=species:S:1:pos:R:3:quaternions:R:4:c_diameter\[1\]:R:1:c_diameter\[2\]:R:1:c_diameter\[3\]:R:1:forces:R:3:torques:R:3 energy=-0.024102271687735054 pbc="F F F"
X       10.00000000      10.00000000      10.00000000       0.32767038      -0.14595305       0.93336986       0.01226936       1.00000000       2.00000000       1.00000000       0.03711282       0.01445918       0.01917925       0.02424245      -0.00000000       0.00013740
X       11.85477580      11.60791037      11.43988595       0.28622528      -0.36069104       0.85742445       0.22978333       1.00000000       2.00000000       1.00000000      -0.03711282      -0.01445918      -0.01917925       0.00949571       0.00000000      -0.02066210
2
Lattice="20.0 0.0 0.0 0.0 20.0 0.0 0.0 0.0 20.0" Properties=species:S:1:pos:R:3:quaternions:R:4:c_diameter\[1\]:R:1:c_diameter\[2\]:R:1:c_diameter\[3\]:R:1:forces:R:3:torques:R:3 energy=-0.24275578456986835 pbc="F F F"
X       10.00000000      10.00000000      10.00000000      -0.31581654      -0.21057536       0.90357367      -0.19867701       1.00000000       2.00000000       1.00000000       0.37463884       0.60286834       0.72007536       0.02216103       0.00000000      -0.05353303
X       11.21707717      11.23672379      11.18236247      -0.52616487       0.48044667       0.63426758      -0.30004361       1.00000000       2.00000000       1.00000000      -0.37463884      -0.60286834      -0.72007536       0.40899631      -0.00000000      -0.35017644
2
Lattice="20.0 0.0 0.0 0.0 20.0 0.0 0.0 0.0 20.0" Properties=species:S:1:pos:R:3:quaternions:R:4:c_diameter\[1\]:R:1:c_diameter\[2\]:R:1:c_diameter\[3\]:R:1:forces:R:3:torques:R:3 energy=-0.033077248912322374 pbc="F F F"
X       10.00000000      10.00000000      10.00000000       0.62036724       0.14720321      -0.54544712       0.54402494       1.00000000       2.00000000       1.00000000       0.03156121       0.05521702       0.03573655       0.00280519       0.00000000      -0.00644459
X       11.40267918      11.61968925      11.40489882       0.01698834       0.56473505       0.56705715       0.59935958       1.00000000       2.00000000       1.00000000      -0.03156121      -0.05521702      -0.03573655      -0.02155414       0.00000000       0.02702249
2
Lattice="20.0 0.0 0.0 0.0 20.0 0.0 0.0 0.0 20.0" Properties=species:S:1:pos:R:3:quaternions:R:4:c_diameter\[1\]:R:1:c_diameter\[2\]:R:1:c_diameter\[3\]:R:1:forces:R:3:torques:R:3 energy=-0.01201246060595058 pbc="F F F"
X       10.00000000      10.00000000      10.00000000       0.59993721      -0.13502537       0.61297525      -0.49608954       1.00000000       2.00000000       1.00000000       0.00563497       0.01368376       0.01014099      -0.00861988      -0.00000000      -0.00329612
X       11.59725903      11.98948237      11.82686331       0.63030178       0.30931082       0.08023055       0.70753766       1.00000000       2.00000000       1.00000000      -0.00563497      -0.01368376      -0.01014099      -0.00728035      -0.00000000       0.00184398
2
Lattice="20.0 0.0 0.0 0.0 20.0 0.0 0.0 0.0 20.0" Properties=species:S:1:pos:R:3:quaternions:R:4:c_diameter\[1\]:R:1:c_diameter\[2\]:R:1:c_diameter\[3\]:R:1:forces:R:3:torques:R:3 energy=-0.02510056642953398 pbc="F F F"
X       10.00000000      10.00000000      10.00000000      -0.36460824      -0.40026352       0.24301450       0.80485645       1.00000000       2.00000000       1.00000000       0.02032703       0.02427392       0.03596316       0.02324946       0.00000000       0.01929766
X       11.29036978      11.96765094      11.75951250       0.90880727      -0.20645305       0.26737080      -0.24486594       1.00000000       2.00000000       1.00000000      -0.02032703      -0.02427392      -0.03596316      -0.00089372      -0.00000000       0.02273239
2
Lattice="20.0 0.0 0.0 0.0 20.0 0.0 0.0 0.0 20.0" Properties=species:S:1:pos:R:3:quaternions:R:4:c_diameter\[1\]:R:1:c_diameter\[2\]:R:1:c_diameter\[3\]:R:1:forces:R:3:torques:R:3 energy=-0.012925849778359864 pbc="F F F"
X       10.00000000      10.00000000      10.00000000       0.36276521       0.60762008       0.37776357       0.59707113       1.00000000       2.00000000       1.00000000       0.00455314       0.01427836       0.01216136      -0.00357543      -0.00000000       0.00403522
X       11.30117498      11.99066174      11.99289889      -0.43901381      -0.50523807       0.71409564       0.20510675       1.00000000       2.00000000       1.00000000      -0.00455314      -0.01427836      -0.01216136       0.00281076       0.00000000       0.00640336
2
Lattice="20.0 0.0 0.0 0.0 20.0 0.0 0.0 0.0 20.0" Properties=species:S:1:pos:R:3:quaternions:R:4:c_diameter\[1\]:R:1:c_diameter\[2\]:R:1:c_diameter\[3\]:R:1:forces:R:3:torques:R:3 energy=-0.056483823533000584 pbc="F F F"
X       10.00000000      10.00000000      10.00000000       0.38480060      -0.32143791       0.02897987       0.86473483       1.00000000       2.00000000       1.00000000       0.04356634       0.10173858       0.10208044       0.01083771       0.00000000      -0.00066501
X       11.04642398      11.59574822      11.34684023      -0.10726283       0.79200070      -0.60088621      -0.01285826       1.00000000       2.00000000       1.00000000      -0.04356634      -0.10173858      -0.10208044      -0.06241811       0.00000000       0.02438320
2
Lattice="20.0 0.0 0.0 0.0 20.0 0.0 0.0 0.0 20.0" Properties=species:S:1:pos:R:3:quaternions:R:4:c_diameter\[1\]:R:1:c_diameter\[2\]:R:1:c_diameter\[3\]:R:1:forces:R:3:torques:R:3 energy=-0.05557698091831489 pbc="F F F"
X       10.00000000      10.00000000      10.00000000      -0.26294023       0.32991196       0.17483669       0.88963626       1.00000000       2.00000000       1.00000000       0.04634949       0.05526985       0.10623077       0.03775774      -0.00000000      -0.02706522
X       11.00087189      11.74846348      11.96700752      -0.02545097       0.42634465      -0.28106901       0.85940834       1.00000000       2.00000000       1.00000000      -0.04634949      -0.05526985      -0.10623077       0.04112142       0.00000000      -0.01002021
2
Lattice="20.0 0.0 0.0 0.0 20.0 0.0 0.0 0.0 20.0" Properties=species:S:1:pos:R:3:quaternions:R:4:c_diameter\[1\]:R:1:c_diameter\[2\]:R:1:c_diameter\[3\]:R:1:forces:R:3:torques:R:3 energy=-0.28202349488086254 pbc="F F F"
X       10.00000000      10.00000000      10.00000000      -0.50931382       0.06040892       0.82734049       0.22903690       1.00000000       2.00000000       1.00000000       0.67678676       0.22148087       0.76689379      -0.25144043      -0.00000000      -0.42426221
X       11.46349837      11.10180811      11.58178027       0.87684514      -0.28774513      -0.05067436       0.38180813       1.00000000       2.00000000       1.00000000      -0.67678676      -0.22148087      -0.76689379      -0.35067872      -0.00000000      -0.06623858
2
Lattice="20.0 0.0 0.0 0.0 20.0 0.0 0.0 0.0 20.0" Properties=species:S:1:pos:R:3:quaternions:R:4:c_diameter\[1\]:R:1:c_diameter\[2\]:R:1:c_diameter\[3\]:R:1:forces:R:3:torques:R:3 energy=-0.027232794281809712 pbc="F F F"
X       10.00000000      10.00000000      10.00000000       0.18906342       0.40199553      -0.05226002       0.89438443       1.00000000       2.00000000       1.00000000       0.04032911       0.01536171       0.03120840       0.02223580      -0.00000000       0.01597714
X       11.79781013      11.48698364      11.43121173      -0.17050765       0.01837476       0.95740535      -0.23230261       1.00000000       2.00000000       1.00000000      -0.04032911      -0.01536171      -0.03120840       0.01918820      -0.00000000      -0.01491195
2
Lattice="20.0 0.0 0.0 0.0 20.0 0.0 0.0 0.0 20.0" Properties=species:S:1:pos:R:3:quaternions:R:4:c_diameter\[1\]:R:1:c_diameter\[2\]:R:1:c_diameter\[3\]:R:1:forces:R:3:torques:R:3 energy=-0.025667133309372453 pbc="F F F"
X       10.00000000      10.00000000      10.00000000      -0.16203781      -0.26494137       0.92659453       0.21206695       1.00000000       2.00000000       1.00000000       0.03504505       0.02881972       0.02299043      -0.00861553       0.00000000      -0.02087327
X       11.44306325      11.92852390      11.15761617      -0.27807680       0.93167835       0.17772118       0.15186815       1.00000000       2.00000000       1.00000000      -0.03504505      -0.02881972      -0.02299043      -0.01214010       0.00000000      -0.00849474
2
Lattice="20.0 0.0 0.0 0.0 20.0 0.0 0.0 0.0 20.0" Properties=species:S:1:pos:R:3:quaternions:R:4:c_diameter\[1\]:R:1:c_diameter\[2\]:R:1:c_diameter\[3\]:R:1:forces:R:3:torques:R:3 energy=-0.0383639986778245 pbc="F F F"
X       10.00000000      10.00000000      10.00000000       0.01958005      -0.25890149      -0.55168519       0.79260967       1.00000000       2.00000000       1.00000000       0.06115084       0.03919051       0.02141420      -0.04128137      -0.00000000       0.01597255
X       11.56994866      11.83417604      11.47794969       0.84456386      -0.23171149      -0.36041301      -0.32112947       1.00000000       2.00000000       1.00000000      -0.06115084      -0.03919051      -0.02141420      -0.04141167      -0.00000000       0.01470855
2
Lattice="20.0 0.0 0.0 0.0 20.0 0.0 0.0 0.0 20.0" Properties=species:S:1:pos:R:3:quaternions:R:4:c_diameter\[1\]:R:1:c_diameter\[2\]:R:1:c_diameter\[3\]:R:1:forces:R:3:torques:R:3 energy=-0.12152047655658821 pbc="F F F"
X       10.00000000      10.00000000      10.00000000      -0.61092386      -0.35649510      -0.33683339       0.62147128       1.00000000       2.00000000       1.00000000       0.09033840       0.33258363       0.13438210      -0.06793280       0.00000000      -0.18922805
X       11.19741997      11.72782548      11.16423565      -0.64614444      -0.12972655       0.04252643       0.75090605       1.00000000       2.00000000       1.00000000      -0.09033840      -0.33258363      -0.13438210       0.15964800      -0.00000000      -0.11114018
2
Lattice="20.0 0.0 0.0 0.0 20.0 0.0 0.0 0.0 20.0" Properties=species:S:1:pos:R:3:quaternions:R:4:c_diameter\[1\]:R:1:c_diameter\[2\]:R:1:c_diameter\[3\]:R:1:forces:R:3:torques:R:3 energy=-0.02984064891763355 pbc="F F F"
X       10.00000000      10.00000000      10.00000000       0.20166038       0.32950005       0.80488600      -0.45046791       1.00000000       2.00000000       1.00000000       0.03068162       0.04451650       0.02322667       0.00820047       0.00000000       0.00181023
X       11.94902265      11.95119345      11.21588129       0.81458759      -0.34349251      -0.04928289       0.46479151       1.00000000       2.00000000       1.00000000      -0.03068162      -0.04451650      -0.02322667       0.01667738      -0.00000000      -0.02499422
2
Lattice="20.0 0.0 0.0 0.0 20.0 0.0 0.0 0.0 20.0" Properties=species:S:1:pos:R:3:quaternions:R:4:c_diameter\[1\]:R:1:c_diameter\[2\]:R:1:c_diameter\[3\]:R:1:forces:R:3:torques:R:3 energy=-0.14067843226195706 pbc="F F F"
X       10.00000000      10.00000000      10.00000000      -0.36781310       0.61859229       0.37639765       0.58342259       1.00000000       2.00000000       1.00000000       0.14197094       0.39776707       0.26549355      -0.02685353      -0.00000000       0.07634649
X       11.10895005      11.49792295      11.14698483      -0.50750960      -0.51723669       0.32751489       0.60632847       1.00000000       2.00000000       1.00000000      -0.14197094      -0.39776707      -0.26549355       0.24889302      -0.00000000       0.09526634
2
Lattice="20.0 0.0 0.0 0.0 20.0 0.0 0.0 0.0 20.0" Properties=species:S:1:pos:R:3:quaternions:R:4:c_diameter\[1\]:R:1:c_diameter\[2\]:R:1:c_diameter\[3\]:R:1:forces:R:3:torques:R:3 energy=-0.04751766585873877 pbc="F F F"
X       10.00000000      10.00000000      10.00000000       0.29396965      -0.56131541       0.75269756      -0.17875468       1.00000000       2.00000000       1.00000000       0.01648350       0.08378807       0.06743492      -0.03275654      -0.00000000       0.00326883
X       11.12653223      11.69990695      11.57628854       0.35585126      -0.49856346       0.61907242      -0.49148113       1.00000000       2.00000000       1.00000000      -0.01648350      -0.08378807      -0.06743492      -0.05007839       0.00000000      -0.01461436
2
Lattice="20.0 0.0 0.0 0.0 20.0 0.0 0.0 0.0 20.0" Properties=species:S:1:pos:R:3:quaternions:R:4:c_diameter\[1\]:R:1:c_diameter\[2\]:R:1:c_diameter\[3\]:R:1:forces:R:3:torques:R:3 energy=-0.030182900982936085 pbc="F F F"
X       10.00000000      10.00000000      10.00000000      -0.06236895       0.00563267       0.87804454      -0.47446408       1.00000000       2.00000000       1.00000000       0.03343598       0.04022164       0.02586896      -0.01850619      -0.00000000       0.00555105
X       11.32200238      11.83401176      11.92297533       0.37655068      -0.23221806       0.72865191       0.52282957       1.00000000       2.00000000       1.00000000      -0.03343598      -0.04022164      -0.02586896       0.01497927      -0.00000000      -0.02555772
2
Lattice="20.0 0.0 0.0 0.0 20.0 0.0 0.0 0.0 20.0" Properties=species:S:1:pos:R:3:quaternions:R:4:c_diameter\[1\]:R:1:c_diameter\[2\]:R:1:c_diameter\[3\]:R:1:forces:R:3:torques:R:3 energy=-0.013285742227992654 pbc="F F F"
X       10.00000000      10.00000000      10.00000000       0.84914682       0.12118868       0.02203217       0.51359281       1.00000000       2.00000000       1.00000000       0.00801312       0.01073708       0.01595049      -0.01207201      -0.00000000      -0.00364887
X       11.62871801      11.78419027      11.96816601       0.91985701       0.15232258       0.28482545      -0.22256546       1.00000000       2.00000000       1.00000000      -0.00801312      -0.01073708      -0.01595049       0.00037353      -0.00000000       0.00272403
2
Lattice="20.0 0.0 0.0 0.0 20.0 0.0 0.0 0.0 20.0" Properties=species:S:1:pos:R:3:quaternions:R:4:c_diameter\[1\]:R:1:c_diameter\[2\]:R:1:c_diameter\[3\]:R:1:forces:R:3:torques:R:3 energy=-0.0392202153166512 pbc="F F F"
X       10.00000000      10.00000000      10.00000000       0.59256092       0.00180572       0.77238045      -0.22868480       1.00000000       2.00000000       1.00000000       0.05015128       0.02287397       0.06694349       0.01450826       0.00000000       0.00349016
X       11.45921122      11.25478325      11.72709224      -0.05569733       0.99441806      -0.08605114      -0.02501444       1.00000000       2.00000000       1.00000000      -0.05015128      -0.02287397      -0.06694349      -0.03833652       0.00000000      -0.01536267
2
Lattice="20.0 0.0 0.0 0.0 20.0 0.0 0.0 0.0 20.0" Properties=species:S:1:pos:R:3:quaternions:R:4:c_diameter\[1\]:R:1:c_diameter\[2\]:R:1:c_diameter\[3\]:R:1:forces:R:3:torques:R:3 energy=-0.1678025464716321 pbc="F F F"
X       10.00000000      10.00000000      10.00000000       0.65186174       0.36426206      -0.39545432      -0.53479464       1.00000000       2.00000000       1.00000000       0.31438478       0.37366685       0.39010574       0.24604154       0.00000000       0.04721425
X       11.07995057      11.03885108      11.58871864       0.49039168       0.40231402      -0.37014408       0.67871407       1.00000000       2.00000000       1.00000000      -0.31438478      -0.37366685      -0.39010574       0.20483241       0.00000000       0.21204894
2
Lattice="20.0 0.0 0.0 0.0 20.0 0.0 0.0 0.0 20.0" Properties=species:S:1:pos:R:3:quaternions:R:4:c_diameter\[1\]:R:1:c_diameter\[2\]:R:1:c_diameter\[3\]:R:1:forces:R:3:torques:R:3 energy=-0.1943698667125026 pbc="F F F"
X       10.00000000      10.00000000      10.00000000       0.63492642      -0.51347869      -0.56829306       0.10124760       1.00000000       2.00000000       1.00000000       0.31282619       0.38806002       0.41401759       0.21491263      -0.00000000      -0.02340983
X       11.28224118      11.74376324      11.35094202       0.00470963       0.94721266       0.02572530       0.31953750       1.00000000       2.00000000       1.00000000      -0.31282619      -0.38806002      -0.41401759      -0.06567403      -0.00000000      -0.33748266
2
Lattice="20.0 0.0 0.0 0.0 20.0 0.0 0.0 0.0 20.0" Properties=species:S:1:pos:R:3:quaternions:R:4:c_diameter\[1\]:R:1:c_diameter\[2\]:R:1:c_diameter\[3\]:R:1:forces:R:3:torques:R:3 energy=-0.06856236853373796 pbc="F F F"
X       10.00000000      10.00000000      10.00000000      -0.42132867       0.54923926       0.63015994      -0.35173405       1.00000000       2.00000000       1.00000000       0.06151617       0.12432134       0.08756620       0.07505982      -0.00000000      -0.00136675
X       11.75607679      11.67360584      11.03381000       0.07165373      -0.64752920       0.73120862       0.20225139       1.00000000       2.00000000       1.00000000      -0.06151617      -0.12432134      -0.08756620      -0.04769839       0.00000000       0.05972256
2
Lattice="20.0 0.0 0.0 0.0 20.0 0.0 0.0 0.0 20.0" Properties=species:S:1:pos:R:3:quaternions:R:4:c_diameter\[1\]:R:1:c_diameter\[2\]:R:1:c_diameter\[3\]:R:1:forces:R:3:torques:R:3 energy=-0.02607058780560452 pbc="F F F"
X       10.00000000      10.00000000      10.00000000       0.78673291       0.47693745       0.38347625      -0.08079576       1.00000000       2.00000000       1.00000000       0.03994158       0.02557906       0.02413297       0.00471489      -0.00000000      -0.00115888
X       11.71182470      11.37494830      11.38212038       0.31008882       0.81976487       0.40558302      -0.25948582       1.00000000       2.00000000       1.00000000      -0.03994158      -0.02557906      -0.02413297      -0.01534254       0.00000000      -0.00930708
2
Lattice="20.0 0.0 0.0 0.0 20.0 0.0 0.0 0.0 20.0" Properties=species:S:1:pos:R:3:quaternions:R:4:c_diameter\[1\]:R:1:c_diameter\[2\]:R:1:c_diameter\[3\]:R:1:forces:R:3:torques:R:3 energy=-0.0386772750696902 pbc="F F F"
X       10.00000000      10.00000000      10.00000000       0.60289676      -0.45848223      -0.35326997       0.54909914       1.00000000       2.00000000       1.00000000       0.04281614       0.03327374       0.06332198       0.01977422       0.00000000      -0.04945153
X       11.90144889      11.32843457      11.64523510       0.78882776       0.09435711       0.60351135       0.06798191       1.00000000       2.00000000       1.00000000      -0.04281614      -0.03327374      -0.06332198       0.01794231       0.00000000       0.04369509
2
Lattice="20.0 0.0 0.0 0.0 20.0 0.0 0.0 0.0 20.0" Properties=species:S:1:pos:R:3:quaternions:R:4:c_diameter\[1\]:R:1:c_diameter\[2\]:R:1:c_diameter\[3\]:R:1:forces:R:3:torques:R:3 energy=-0.019974770241436905 pbc="F F F"
X       10.00000000      10.00000000      10.00000000       0.22361417       0.53136426       0.62105346      -0.53098147       1.00000000       2.00000000       1.00000000       0.02020578       0.02376851       0.01625156      -0.01530421       0.00000000      -0.00394107
X       11.34269714      11.90559407      11.70504267      -0.53538831       0.22165686       0.29029034       0.76155047       1.00000000       2.00000000       1.00000000      -0.02020578      -0.02376851      -0.01625156      -0.00083715      -0.00000000       0.00118474
2
Lattice="20.0 0.0 0.0 0.0 20.0 0.0 0.0 0.0 20.0" Properties=species:S:1:pos:R:3:quaternions:R:4:c_diameter\[1\]:R:1:c_diameter\[2\]:R:1:c_diameter\[3\]:R:1:forces:R:3:torques:R:3 energy=-0.04503742597146417 pbc="F F F"
X       10.00000000      10.00000000      10.00000000       0.88503464      -0.06116857       0.41292003       0.20608044       1.00000000       2.00000000       1.00000000       0.04632013       0.02333518       0.08371429      -0.00116477      -0.00000000       0.06491704
X       11.79575705      11.10569751      11.95215206       0.46840945       0.47428142       0.53752361       0.51644757       1.00000000       2.00000000       1.00000000      -0.04632013      -0.02333518      -0.08371429      -0.03045463      -0.00000000       0.05626818
2
Lattice="20.0 0.0 0.0 0.0 20.0 0.0 0.0 0.0 20.0" Properties=species:S:1:pos:R:3:quaternions:R:4:c_diameter\[1\]:R:1:c_diameter\[2\]:R:1:c_diameter\[3\]:R:1:forces:R:3:torques:R:3 energy=-0.10477755954393118 pbc="F F F"
X       10.00000000      10.00000000      10.00000000       0.26394379       0.70307608       0.36044288      -0.55326181       1.00000000       2.00000000       1.00000000       0.25392206       0.15582566       0.07936693      -0.13448345       0.00000000      -0.04002232
X       11.43219031      11.43550109      11.10813911       0.57348911      -0.55802500       0.58828454       0.11678886       1.00000000       2.00000000       1.00000000      -0.25392206      -0.15582566      -0.07936693       0.08740443      -0.00000000      -0.01472983
2
Lattice="20.0 0.0 0.0 0.0 20.0 0.0 0.0 0.0 20.0" Properties=species:S:1:pos:R:3:quaternions:R:4:c_diameter\[1\]:R:1:c_diameter\[2\]:R:1:c_diameter\[3\]:R:1:forces:R:3:torques:R:3 energy=-0.12885959852639914 pbc="F F F"
X       10.00000000      10.00000000      10.00000000      -0.50709817       0.16736074      -0.29756130       0.79139061       1.00000000       2.00000000       1.00000000       0.05842806       0.26021183       0.19720704      -0.00514376      -0.00000000      -0.15390467
X       11.42750102      11.77182893      11.44139017       0.48672561       0.37190538       0.60301952       0.51103035       1.00000000       2.00000000       1.00000000      -0.05842806      -0.26021183      -0.19720704      -0.14965436      -0.00000000       0.09501596
2
Lattice="20.0 0.0 0.0 0.0 20.0 0.0 0.0 0.0 20.0" Properties=species:S:1:pos:R:3:quaternions:R:4:c_diameter\[1\]:R:1:c_diameter\[2\]:R:1:c_diameter\[3\]:R:1:forces:R:3:torques:R:3 energy=-0.12196464386314915 pbc="F F F"
X       10.00000000      10.00000000      10.00000000       0.67415276      -0.25636003      -0.60527769       0.33680338       1.00000000       2.00000000       1.00000000       0.18411398       0.16361084       0.21397120      -0.00752287       0.00000000      -0.21114470
X       11.64226674      11.68307395      11.58842506      -0.19748631       0.00657833      -0.41498935       0.88811020       1.00000000       2.00000000       1.00000000      -0.18411398      -0.16361084      -0.21397120      -0.05560089      -0.00000000       0.10652520
2
Lattice="20.0 0.0 0.0 0.0 20.0 0.0 0.0 0.0 20.0" Properties=species:S:1:pos:R:3:quaternions:R:4:c_diameter\[1\]:R:1:c_diameter\[2\]:R:1:c_diameter\[3\]:R:1:forces:R:3:torques:R:3 energy=-0.11174363658363003 pbc="F F F"
X       10.00000000      10.00000000      10.00000000       0.85763701      -0.51359741       0.02495255       0.00733608       1.00000000       2.00000000       1.00000000       0.22741191       0.18187957       0.15020756       0.06626631       0.00000000       0.16858845
X       11.83589327      11.18435897      11.46501295      -0.32862620       0.67072689       0.64303686      -0.16921542       1.00000000       2.00000000       1.00000000      -0.22741191      -0.18187957      -0.15020756       0.16760886      -0.00000000       0.04881101
2
Lattice="20.0 0.0 0.0 0.0 20.0 0.0 0.0 0.0 20.0" Properties=species:S:1:pos:R:3:quaternions:R:4:c_diameter\[1\]:R:1:c_diameter\[2\]:R:1:c_diameter\[3\]:R:1:forces:R:3:torques:R:3 energy=-0.041140381732629176 pbc="F F F"
X       10.00000000      10.00000000      10.00000000       0.50918820      -0.12915058      -0.52946740       0.66611694       1.00000000       2.00000000       1.00000000       0.03445886       0.04919238       0.07032023      -0.01389696       0.00000000      -0.02388913
X       11.55519105      11.17758661      11.63281929       0.09517021      -0.64946878       0.75435473      -0.00904871       1.00000000       2.00000000       1.00000000      -0.03445886      -0.04919238      -0.07032023      -0.03047743      -0.00000000       0.03176805
2
Lattice="20.0 0.0 0.0 0.0 20.0 0.0 0.0 0.0 20.0" Properties=species:S:1:pos:R:3:quaternions:R:4:c_diameter\[1\]:R:1:c_diameter\[2\]:R:1:c_diameter\[3\]:R:1:forces:R:3:torques:R:3 energy=-0.16949176028170557 pbc="F F F"
X       10.00000000      10.00000000      10.00000000      -0.12508121       0.45838362      -0.18531309       0.86017336       1.00000000       2.00000000       1.00000000       0.37735375       0.27396469       0.37078997       0.27607676       0.00000000      -0.09444515
X       11.68989897      11.17784398      11.20580916      -0.27103203      -0.52827079       0.80440121       0.02025605       1.00000000       2.00000000       1.00000000      -0.37735375      -0.27396469      -0.37078997      -0.04030396       0.00000000       0.25951636
2
Lattice="20.0 0.0 0.0 0.0 20.0 0.0 0.0 0.0 20.0" Properties=species:S:1:pos:R:3:quaternions:R:4:c_diameter\[1\]:R:1:c_diameter\[2\]:R:1:c_diameter\[3\]:R:1:forces:R:3:torques:R:3 energy=-0.3956371770097173 pbc="F F F"
X       10.00000000      10.00000000      10.00000000      -0.55490327       0.40096807       0.66029613      -0.30873287       1.00000000       2.00000000       1.00000000       0.42922270       0.85997879       1.25935610       0.57983835       0.00000000      -0.55300256
X       11.00503794      11.66968639      11.33087140       0.21100431       0.82947926      -0.05035389      -0.51469002       1.00000000       2.00000000       1.00000000      -0.42922270      -0.85997879      -1.25935610      -0.54993282       0.00000000       0.45726391
2
Lattice="20.0 0.0 0.0 0.0 20.0 0.0 0.0 0.0 20.0" Properties=species:S:1:pos:R:3:quaternions:R:4:c_diameter\[1\]:R:1:c_diameter\[2\]:R:1:c_diameter\[3\]:R:1:forces:R:3:torques:R:3 energy=-0.020268643308898705 pbc="F F F"
X       10.00000000      10.00000000      10.00000000       0.18774445      -0.23974537       0.25872779       0.91669739       1.00000000       2.00000000       1.00000000       0.02577904       0.01710010       0.01998455      -0.00544129      -0.00000000      -0.00418641
X       11.96761973      11.17085163      11.48881557       0.46709329       0.39781768       0.74636482      -0.25788470       1.00000000       2.00000000       1.00000000      -0.02577904      -0.01710010      -0.01998455       0.00002863      -0.00000000       0.00513525
2
Lattice="20.0 0.0 0.0 0.0 20.0 0.0 0.0 0.0 20.0" Properties=species:S:1:pos:R:3:quaternions:R:4:c_diameter\[1\]:R:1:c_diameter\[2\]:R:1:c_diameter\[3\]:R:1:forces:R:3:torques:R:3 energy=-0.04273523067808236 pbc="F F F"
X       10.00000000      10.00000000      10.00000000       0.53229821      -0.53960165      -0.02434309       0.65184054       1.00000000       2.00000000       1.00000000       0.03525324       0.07166851       0.03356190       0.02702786      -0.00000000      -0.03767752
X       11.66435159      11.96434502      11.55256226       0.53290785       0.72572350      -0.16929455      -0.40084159       1.00000000       2.00000000       1.00000000      -0.03525324      -0.07166851      -0.03356190       0.01982773       0.00000000      -0.00767494
2
Lattice="20.0 0.0 0.0 0.0 20.0 0.0 0.0 0.0 20.0" Properties=species:S:1:pos:R:3:quaternions:R:4:c_diameter\[1\]:R:1:c_diameter\[2\]:R:1:c_diameter\[3\]:R:1:forces:R:3:torques:R:3 energy=-0.06181868260427643 pbc="F F F"
X       10.00000000      10.00000000      10.00000000       0.36570425       0.75473605       0.52933866       0.12819707       1.00000000       2.00000000       1.00000000       0.06838464       0.09896721       0.10503742       0.00576136      -0.00000000       0.00721809
X       11.27621072      11.13528315      11.98421324      -0.24316249       0.55927165       0.65943649       0.43958018       1.00000000       2.00000000       1.00000000      -0.06838464      -0.09896721      -0.10503742      -0.03700464      -0.00000000       0.08105462
2
Lattice="20.0 0.0 0.0 0.0 20.0 0.0 0.0 0.0 20.0" Properties=species:S:1:pos:R:3:quaternions:R:4:c_diameter\[1\]:R:1:c_diameter\[2\]:R:1:c_diameter\[3\]:R:1:forces:R:3:torques:R:3 energy=-0.021977668795253712 pbc="F F F"
X       10.00000000      10.00000000      10.00000000       0.84420152      -0.04624860       0.28312559      -0.45279661       1.00000000       2.00000000       1.00000000       0.02811358       0.02363013       0.02070918      -0.00175658       0.00000000      -0.01797736
X       11.95330291      11.15709996      11.51538814       0.70085344       0.67568385       0.10392107       0.20360797       1.00000000       2.00000000       1.00000000      -0.02811358      -0.02363013      -0.02070918       0.00624325      -0.00000000      -0.00599120
2
Lattice="20.0 0.0 0.0 0.0 20.0 0.0 0.0 0.0 20.0" Properties=species:S:1:pos:R:3:quaternions:R:4:c_diameter\[1\]:R:1:c_diameter\[2\]:R:1:c_diameter\[3\]:R:1:forces:R:3:torques:R:3 energy=-0.17581207671052324 pbc="F F F"
X       10.00000000      10.00000000      10.00000000      -0.08447580       0.92854098      -0.33026869      -0.14696288       1.00000000       2.00000000       1.00000000       0.41191621       0.20587505       0.27346618      -0.32315926      -0.00000000      -0.03656037
X       11.85178683      11.57976075      11.08946680      -0.22044635       0.32835021       0.88776571       0.23550283       1.00000000       2.00000000       1.00000000      -0.41191621      -0.20587505      -0.27346618      -0.14997853       0.00000000      -0.15569510
2
Lattice="20.0 0.0 0.0 0.0 20.0 0.0 0.0 0.0 20.0" Properties=species:S:1:pos:R:3:quaternions:R:4:c_diameter\[1\]:R:1:c_diameter\[2\]:R:1:c_diameter\[3\]:R:1:forces:R:3:torques:R:3 energy=-0.16692031377374544 pbc="F F F"
X       10.00000000      10.00000000      10.00000000       0.65286290       0.50651660      -0.02451352      -0.56268113       1.00000000       2.00000000       1.00000000       0.26634723       0.34143530       0.12985776       0.13065379       0.00000000      -0.25994728
X       11.99766991      11.72487542      11.10819211       0.88593976      -0.10974148       0.14217921       0.42761269       1.00000000       2.00000000       1.00000000      -0.26634723      -0.34143530      -0.12985776      -0.06078513      -0.00000000      -0.00399097
2
Lattice="20.0 0.0 0.0 0.0 20.0 0.0 0.0 0.0 20.0" Properties=species:S:1:pos:R:3:quaternions:R:4:c_diameter\[1\]:R:1:c_diameter\[2\]:R:1:c_diameter\[3\]:R:1:forces:R:3:torques:R:3 energy=-0.15816118685852928 pbc="F F F"
X       10.00000000      10.00000000      10.00000000      -0.50008486       0.31394487      -0.55976929       0.58138808       1.00000000       2.00000000       1.00000000       0.29844410       0.37738395       0.19289876      -0.21462834      -0.00000000      -0.19095875
X       11.67826057      11.10812914      11.27763764       0.49718372      -0.40011544       0.44261010       0.62993037       1.00000000       2.00000000       1.00000000      -0.29844410      -0.37738395      -0.19289876       0.16316841      -0.00000000      -0.20902190
2
Lattice="20.0 0.0 0.0 0.0 20.0 0.0 0.0 0.0 20.0" Properties=species:S:1:pos:R:3:quaternions:R:4:c_diameter\[1\]:R:1:c_diameter\[2\]:R:1:c_diameter\[3\]:R:1:forces:R:3:torques:R:3 energy=-0.023826792132488697 pbc="F F F"
X       10.00000000      10.00000000      10.00000000       0.52267411      -0.31762665      -0.28537499       0.73789308       1.00000000       2.00000000       1.00000000       0.02008598       0.03909311       0.01640371       0.00305488       0.00000000      -0.01171982
X       11.35723786      11.94529274      11.27761715       0.72280270       0.63862629      -0.23987213       0.11033621       1.00000000       2.00000000       1.00000000      -0.02008598      -0.03909311      -0.01640371       0.02029084      -0.00000000      -0.00111979
2
Lattice="20.0 0.0 0.0 0.0 20.0 0.0 0.0 0.0 20.0" Properties=species:S:1:pos:R:3:quaternions:R:4:c_diameter\[1\]:R:1:c_diameter\[2\]:R:1:c_diameter\[3\]:R:1:forces:R:3:torques:R:3 energy=-0.02690425355205014 pbc="F F F"
X       10.00000000      10.00000000      10.00000000       0.63124624      -0.29784390      -0.34158690      -0.62939303       1.00000000       2.00000000       1.00000000       0.01953002       0.03498058       0.03425646      -0.00391597      -0.00000000       0.00494916
X       11.38735548      11.89517950      11.61301183       0.62813829       0.42504134       0.56914071       0.31758622       1.00000000       2.00000000       1.00000000      -0.01953002      -0.03498058      -0.03425646      -0.01444381      -0.00000000       0.02326919
2
Lattice="20.0 0.0 0.0 0.0 20.0 0.0 0.0 0.0 20.0" Properties=species:S:1:pos:R:3:quaternions:R:4:c_diameter\[1\]:R:1:c_diameter\[2\]:R:1:c_diameter\[3\]:R:1:forces:R:3:torques:R:3 energy=-0.03644737335371296 pbc="F F F"
X       10.00000000      10.00000000      10.00000000      -0.02733894       0.63956453       0.24461356       0.72826781       1.00000000       2.00000000       1.00000000       0.03773007       0.04678037       0.05429666      -0.01174439       0.00000000      -0.00303109
X       11.64628574      11.15965575      11.61994981      -0.41221431       0.65312143       0.42875795      -0.46869861       1.00000000       2.00000000       1.00000000      -0.03773007      -0.04678037      -0.05429666       0.03001278      -0.00000000      -0.02975261
2
Lattice="20.0 0.0 0.0 0.0 20.0 0.0 0.0 0.0 20.0" Properties=species:S:1:pos:R:3:quaternions:R:4:c_diameter\[1\]:R:1:c_diameter\[2\]:R:1:c_diameter\[3\]:R:1:forces:R:3:torques:R:3 energy=-0.048377785413681665 pbc="F F F"
X       10.00000000      10.00000000      10.00000000       0.44124194       0.70185411      -0.34729721      -0.43828189       1.00000000       2.00000000       1.00000000       0.07083738       0.06535275       0.05362571       0.02732293      -0.00000000       0.03123465
X       11.87479619      11.60067978      11.48187664       0.49127626       0.83728935       0.19155565       0.14457044       1.00000000       2.00000000       1.00000000      -0.07083738      -0.06535275      -0.05362571       0.01378647      -0.00000000      -0.03837593
2
Lattice="20.0 0.0 0.0 0.0 20.0 0.0 0.0 0.0 20.0" Properties=species:S:1:pos:R:3:quaternions:R:4:c_diameter\[1\]:R:1:c_diameter\[2\]:R:1:c_diameter\[3\]:R:1:forces:R:3:torques:R:3 energy=-0.0378738875879952 pbc="F F F"
X       10.00000000      10.00000000      10.00000000      -0.06730062       0.27208533      -0.60242886       0.74734173       1.00000000       2.00000000       1.00000000       0.06049072       0.04042400       0.03705459      -0.01222645      -0.00000000       0.04185917
X       11.91797642      11.21263186      11.76230184       0.93943090       0.03349164      -0.13903593      -0.31147536       1.00000000       2.00000000       1.00000000      -0.06049072      -0.04042400      -0.03705459       0.00335380       0.00000000      -0.00263016
2
Lattice="20.0 0.0 0.0 0.0 20.0 0.0 0.0 0.0 20.0" Properties=species:S:1:pos:R:3:quaternions:R:4:c_diameter\[1\]:R:1:c_diameter\[2\]:R:1:c_diameter\[3\]:R:1:forces:R:3:torques:R:3 energy=-0.019548012258570977 pbc="F F F"
X       10.00000000      10.00000000      10.00000000       0.22668030      -0.28613471       0.92981576       0.04675054       1.00000000       2.00000000       1.00000000       0.02122168       0.01689029       0.02193005       0.00881413      -0.00000000      -0.00531972
X       11.92973834      11.77537929      11.38359191      -0.43751906       0.69914968      -0.27076759       0.49643903       1.00000000       2.00000000       1.00000000      -0.02122168      -0.01689029      -0.02193005      -0.00607048      -0.00000000      -0.02040294
2
Lattice="20.0 0.0 0.0 0.0 20.0 0.0 0.0 0.0 20.0" Properties=species:S:1:pos:R:3:quaternions:R:4:c_diameter\[1\]:R:1:c_diameter\[2\]:R:1:c_diameter\[3\]:R:1:forces:R:3:torques:R:3 energy=-0.0275458534730743 pbc="F F F"
X       10.00000000      10.00000000      10.00000000       0.23221676       0.86388873       0.37554873       0.24235261       1.00000000       2.00000000       1.00000000       0.02754686       0.04112420       0.02766351       0.00078571      -0.00000000      -0.01487938
X       11.03945822      11.76382236      11.72184723       0.78531344       0.61541246      -0.04870707      -0.04666829       1.00000000       2.00000000       1.00000000      -0.02754686      -0.04112420      -0.02766351       0.02570855       0.00000000      -0.01110778
2
Lattice="20.0 0.0 0.0 0.0 20.0 0.0 0.0 0.0 20.0" Properties=species:S:1:pos:R:3:quaternions:R:4:c_diameter\[1\]:R:1:c_diameter\[2\]:R:1:c_diameter\[3\]:R:1:forces:R:3:torques:R:3 energy=-0.04722997595961039 pbc="F F F"
X       10.00000000      10.00000000      10.00000000       0.62029063      -0.17144521      -0.27739005       0.71337286       1.00000000       2.00000000       1.00000000       0.05188067       0.07162342       0.07433566      -0.02043030      -0.00000000      -0.04602951
X       11.42484900      11.43477601      11.34576876      -0.65469946      -0.23526599       0.66378455       0.27460628       1.00000000       2.00000000       1.00000000      -0.05188067      -0.07162342      -0.07433566       0.00370237      -0.00000000      -0.01237729
2
Lattice="20.0 0.0 0.0 0.0 20.0 0.0 0.0 0.0 20.0" Properties=species:S:1:pos:R:3:quaternions:R:4:c_diameter\[1\]:R:1:c_diameter\[2\]:R:1:c_diameter\[3\]:R:1:forces:R:3:torques:R:3 energy=-0.021972535078701935 pbc="F F F"
X       10.00000000      10.00000000      10.00000000      -0.05323960       0.98208605      -0.13041854      -0.12515409       1.00000000       2.00000000       1.00000000       0.01503159       0.01961817       0.03281358      -0.02325754       0.00000000      -0.00323993
X       11.35003917      11.69130335      11.87121953       0.25865996       0.72375226       0.56267036       0.30443351       1.00000000       2.00000000       1.00000000      -0.01503159      -0.01961817      -0.03281358      -0.00025828      -0.00000000       0.01384219
2
Lattice="20.0 0.0 0.0 0.0 20.0 0.0 0.0 0.0 20.0" Properties=species:S:1:pos:R:3:quaternions:R:4:c_diameter\[1\]:R:1:c_diameter\[2\]:R:1:c_diameter\[3\]:R:1:forces:R:3:torques:R:3 energy=-0.06240677924124774 pbc="F F F"
X       10.00000000      10.00000000      10.00000000      -0.51142975       0.85528184      -0.07395123       0.03825966       1.00000000       2.00000000       1.00000000       0.06568671       0.08916108       0.12688426       0.05601095      -0.00000000       0.01941813
X       11.06396500      11.15099153      11.77897008       0.87868835       0.10587662      -0.17609836       0.43091331       1.00000000       2.00000000       1.00000000      -0.06568671      -0.08916108      -0.12688426      -0.05223538      -0.00000000      -0.03149882
2
Lattice="20.0 0.0 0.0 0.0 20.0 0.0 0.0 0.0 20.0" Properties=species:S:1:pos:R:3:quaternions:R:4:c_diameter\[1\]:R:1:c_diameter\[2\]:R:1:c_diameter\[3\]:R:1:forces:R:3:torques:R:3 energy=-0.0739900478337433 pbc="F F F"
X       10.00000000      10.00000000      10.00000000      -0.46793977      -0.08044264       0.69174433       0.54410581       1.00000000       2.00000000       1.00000000       0.12727852       0.06499739       0.16415702      -0.03984915       0.00000000      -0.05587765
X       11.18932851      11.05671193      11.61137716      -0.29275839       0.77989869      -0.14414301       0.53410986       1.00000000       2.00000000       1.00000000      -0.12727852      -0.06499739      -0.16415702       0.00858123       0.00000000      -0.08484949
2
Lattice="20.0 0.0 0.0 0.0 20.0 0.0 0.0 0.0 20.0" Properties=species:S:1:pos:R:3:quaternions:R:4:c_diameter\[1\]:R:1:c_diameter\[2\]:R:1:c_diameter\[3\]:R:1:forces:R:3:torques:R:3 energy=-0.06664415303512349 pbc="F F F"
X       10.00000000      10.00000000      10.00000000       0.68141550       0.38757943       0.32097037      -0.53144437       1.00000000       2.00000000       1.00000000       0.15140081       0.08191422       0.05332489      -0.06385070      -0.00000000      -0.06876161
X       11.97805023      11.09409479      11.05692562       0.07997622      -0.50292580       0.22238080       0.83139414       1.00000000       2.00000000       1.00000000      -0.15140081      -0.08191422      -0.05332489      -0.03145393       0.00000000       0.03551041
2
Lattice="20.0 0.0 0.0 0.0 20.0 0.0 0.0 0.0 20.0" Properties=species:S:1:pos:R:3:quaternions:R:4:c_diameter\[1\]:R:1:c_diameter\[2\]:R:1:c_diameter\[3\]:R:1:forces:R:3:torques:R:3 energy=-0.026700577249779058 pbc="F F F"
X       10.00000000      10.00000000      10.00000000      -0.34442842       0.73443314      -0.21309618      -0.54457969       1.00000000       2.00000000       1.00000000       0.03232380       0.03357350       0.01935448       0.01360319       0.00000000      -0.01391180
X       11.73283008      11.32840765      11.76142198       0.73632277       0.52484162      -0.37548485       0.20342365       1.00000000       2.00000000       1.00000000      -0.03232380      -0.03357350      -0.01935448       0.02527716      -0.00000000      -0.00033964
2
Lattice="20.0 0.0 0.0 0.0 20.0 0.0 0.0 0.0 20.0" Properties=species:S:1:pos:R:3:quaternions:R:4:c_diameter\[1\]:R:1:c_diameter\[2\]:R:1:c_diameter\[3\]:R:1:forces:R:3:torques:R:3 energy=-0.042330848087213206 pbc="F F F"
X       10.00000000      10.00000000      10.00000000      -0.27805413      -0.62677328       0.70417613      -0.18432890       1.00000000       2.00000000       1.00000000       0.04992134       0.06978966       0.04139913      -0.00905571       0.00000000       0.05032567
X       11.75965013      11.49579876      11.37727775      -0.32950182       0.72256868      -0.17915367      -0.58071251       1.00000000       2.00000000       1.00000000      -0.04992134      -0.06978966      -0.04139913       0.01434608      -0.00000000       0.00156034
2
Lattice="20.0 0.0 0.0 0.0 20.0 0.0 0.0 0.0 20.0" Properties=species:S:1:pos:R:3:quaternions:R:4:c_diameter\[1\]:R:1:c_diameter\[2\]:R:1:c_diameter\[3\]:R:1:forces:R:3:torques:R:3 energy=-0.0832837396291889 pbc="F F F"
X       10.00000000      10.00000000      10.00000000      -0.04819193       0.74010115      -0.66680573      -0.07278694       1.00000000       2.00000000       1.00000000       0.05771853       0.13264184       0.16159100      -0.05573143      -0.00000000       0.08014942
X       11.22716870      11.84875458      11.47684433       0.81212727       0.06900768       0.48771876       0.31275813       1.00000000       2.00000000       1.00000000      -0.05771853      -0.13264184      -0.16159100      -0.03415051      -0.00000000       0.09387512
2
Lattice="20.0 0.0 0.0 0.0 20.0 0.0 0.0 0.0 20.0" Properties=species:S:1:pos:R:3:quaternions:R:4:c_diameter\[1\]:R:1:c_diameter\[2\]:R:1:c_diameter\[3\]:R:1:forces:R:3:torques:R:3 energy=-0.03674746226701884 pbc="F F F"
X       10.00000000      10.00000000      10.00000000       0.14364233       0.40313301       0.47801879       0.76703891       1.00000000       2.00000000       1.00000000       0.04873774       0.06178931       0.02656281      -0.03099812      -0.00000000       0.01164416
X       11.53405045      11.53766428      11.24794548       0.52118853       0.58770320       0.51644834      -0.34095246       1.00000000       2.00000000       1.00000000      -0.04873774      -0.06178931      -0.02656281      -0.02128258      -0.00000000      -0.01712206
2
Lattice="20.0 0.0 0.0 0.0 20.0 0.0 0.0 0.0 20.0" Properties=species:S:1:pos:R:3:quaternions:R:4:c_diameter\[1\]:R:1:c_diameter\[2\]:R:1:c_diameter\[3\]:R:1:forces:R:3:torques:R:3 energy=-0.07984204815296042 pbc="F F F"
X       10.00000000      10.00000000      10.00000000       0.76444344      -0.48636350      -0.40113032       0.13480073       1.00000000       2.00000000       1.00000000       0.15485468       0.12581101       0.06981631      -0.01201543       0.00000000       0.06352890
X       11.91820462      11.37605929      11.30516258       0.24682579      -0.18411813       0.87476333      -0.37412118       1.00000000       2.00000000       1.00000000      -0.15485468      -0.12581101      -0.06981631      -0.06383950      -0.00000000       0.02455644
2
Lattice="20.0 0.0 0.0 0.0 20.0 0.0 0.0 0.0 20.0" Properties=species:S:1:pos:R:3:quaternions:R:4:c_diameter\[1\]:R:1:c_diameter\[2\]:R:1:c_diameter\[3\]:R:1:forces:R:3:torques:R:3 energy=-0.08280146144579521 pbc="F F F"
X       10.00000000      10.00000000      10.00000000      -0.33824297      -0.33479077       0.23381313       0.84784330       1.00000000       2.00000000       1.00000000       0.06572109       0.09746867       0.20235061       0.06508656       0.00000000       0.09175041
X       11.08606840      11.27325739      11.62437289      -0.27415324       0.76428229      -0.58165830      -0.04884873       1.00000000       2.00000000       1.00000000      -0.06572109      -0.09746867      -0.20235061      -0.04284226      -0.00000000       0.03027371
2
Lattice="20.0 0.0 0.0 0.0 20.0 0.0 0.0 0.0 20.0" Properties=species:S:1:pos:R:3:quaternions:R:4:c_diameter\[1\]:R:1:c_diameter\[2\]:R:1:c_diameter\[3\]:R:1:forces:R:3:torques:R:3 energy=-0.1370923368960961 pbc="F F F"
X       10.00000000      10.00000000      10.00000000       0.64056842      -0.43197461       0.44449080       0.45331882       1.00000000       2.00000000       1.00000000       0.15840734       0.31566056       0.09047114       0.16193295       0.00000000      -0.14495159
X       11.27177397      11.87387817      11.51063185       0.56918913       0.72799632      -0.07814596      -0.37408330       1.00000000       2.00000000       1.00000000      -0.15840734      -0.31566056      -0.09047114       0.15945116       0.00000000      -0.04270309
2
Lattice="20.0 0.0 0.0 0.0 20.0 0.0 0.0 0.0 20.0" Properties=species:S:1:pos:R:3:quaternions:R:4:c_diameter\[1\]:R:1:c_diameter\[2\]:R:1:c_diameter\[3\]:R:1:forces:R:3:torques:R:3 energy=-0.5014718204643123 pbc="F F F"
X       10.00000000      10.00000000      10.00000000       0.62323429      -0.01764862       0.63961865       0.44961710       1.00000000       2.00000000       1.00000000       1.40116523       0.85996061       1.44358609       0.15028648       0.00000000       0.38475669
X       11.11552801      11.19280577      11.63301365       0.28184094      -0.36177863       0.81237660       0.36017520       1.00000000       2.00000000       1.00000000      -1.40116523      -0.85996061      -1.44358609       0.71423088      -0.00000000      -0.64028279
2
Lattice="20.0 0.0 0.0 0.0 20.0 0.0 0.0 0.0 20.0" Properties=species:S:1:pos:R:3:quaternions:R:4:c_diameter\[1\]:R:1:c_diameter\[2\]:R:1:c_diameter\[3\]:R:1:forces:R:3:torques:R:3 energy=-0.21518449659723124 pbc="F F F"
X       10.00000000      10.00000000      10.00000000       0.36066989      -0.44364216      -0.23115885       0.78718769       1.00000000       2.00000000       1.00000000       0.43062827       0.43820754       0.55577842      -0.02511853      -0.00000000      -0.00247476
X       11.22108311      11.50996481      11.16791007      -0.05643681       0.78488792      -0.26302034       0.55819902       1.00000000       2.00000000       1.00000000      -0.43062827      -0.43820754      -0.55577842      -0.05073668      -0.00000000      -0.37643492
2
Lattice="20.0 0.0 0.0 0.0 20.0 0.0 0.0 0.0 20.0" Properties=species:S:1:pos:R:3:quaternions:R:4:c_diameter\[1\]:R:1:c_diameter\[2\]:R:1:c_diameter\[3\]:R:1:forces:R:3:torques:R:3 energy=-0.060699201101087515 pbc="F F F"
X       10.00000000      10.00000000      10.00000000       0.95774803      -0.04570446       0.15128644      -0.24029614       1.00000000       2.00000000       1.00000000       0.10811067       0.07107802       0.07191991       0.00099314       0.00000000       0.03967468
X       11.91782458      11.71338186      11.02572065      -0.32319844       0.18256333      -0.15183073       0.91605722       1.00000000       2.00000000       1.00000000      -0.10811067      -0.07107802      -0.07191991       0.05040126       0.00000000      -0.01235219
2
Lattice="20.0 0.0 0.0 0.0 20.0 0.0 0.0 0.0 20.0" Properties=species:S:1:pos:R:3:quaternions:R:4:c_diameter\[1\]:R:1:c_diameter\[2\]:R:1:c_diameter\[3\]:R:1:forces:R:3:torques:R:3 energy=-0.02384710109835483 pbc="F F F"
X       10.00000000      10.00000000      10.00000000       0.83664972       0.09331943      -0.48163986      -0.24358115       1.00000000       2.00000000       1.00000000       0.02472151       0.02360092       0.02950246      -0.00057321       0.00000000       0.00471495
X       11.63640440      11.02735588      11.99157751       0.91132821       0.26343806       0.08439608      -0.30489109       1.00000000       2.00000000       1.00000000      -0.02472151      -0.02360092      -0.02950246       0.00909113      -0.00000000      -0.01891996
2
Lattice="20.0 0.0 0.0 0.0 20.0 0.0 0.0 0.0 20.0" Properties=species:S:1:pos:R:3:quaternions:R:4:c_diameter\[1\]:R:1:c_diameter\[2\]:R:1:c_diameter\[3\]:R:1:forces:R:3:torques:R:3 energy=-0.04804267981454631 pbc="F F F"
X       10.00000000      10.00000000      10.00000000      -0.44760335       0.26180243       0.75203335       0.40688644       1.00000000       2.00000000       1.00000000       0.08592115       0.03163434       0.05330312      -0.04830232      -0.00000000      -0.00937497
X       11.67218810      11.17995707      11.86196442      -0.49594029      -0.11594437       0.77454030       0.37508327       1.00000000       2.00000000       1.00000000      -0.08592115      -0.03163434      -0.05330312      -0.01704264       0.00000000      -0.03872079
2
Lattice="20.0 0.0 0.0 0.0 20.0 0.0 0.0 0.0 20.0" Properties=species:S:1:pos:R:3:quaternions:R:4:c_diameter\[1\]:R:1:c_diameter\[2\]:R:1:c_diameter\[3\]:R:1:forces:R:3:torques:R:3 energy=-0.5701436555387397 pbc="F F F"
X       10.00000000      10.00000000      10.00000000      -0.29904270       0.61207810       0.72045348      -0.12992552       1.00000000       2.00000000       1.00000000       1.20719420       2.02262995       1.61643922       1.31987581      -0.00000000       0.37462558
X       11.09266439      11.09532944      11.39385893      -0.16018702      -0.25464209      -0.65301351       0.69503301       1.00000000       2.00000000       1.00000000      -1.20719420      -2.02262995      -1.61643922      -1.31347075      -0.00000000       0.04380078
2
Lattice="20.0 0.0 0.0 0.0 20.0 0.0 0.0 0.0 20.0" Properties=species:S:1:pos:R:3:quaternions:R:4:c_diameter\[1\]:R:1:c_diameter\[2\]:R:1:c_diameter\[3\]:R:1:forces:R:3:torques:R:3 energy=-0.04662668577874028 pbc="F F F"
X       10.00000000      10.00000000      10.00000000      -0.51489990       0.68248808       0.34443250      -0.38788447       1.00000000       2.00000000       1.00000000       0.07430103       0.07643695       0.03420542       0.05864252      -0.00000000       0.01330681
X       11.82920532      11.52754177      11.05251295       0.82650396      -0.24188914       0.48724900      -0.14480768       1.00000000       2.00000000       1.00000000      -0.07430103      -0.07643695      -0.03420542       0.02597291       0.00000000       0.01215189
2
Lattice="20.0 0.0 0.0 0.0 20.0 0.0 0.0 0.0 20.0" Properties=species:S:1:pos:R:3:quaternions:R:4:c_diameter\[1\]:R:1:c_diameter\[2\]:R:1:c_diameter\[3\]:R:1:forces:R:3:torques:R:3 energy=-0.10430458817523208 pbc="F F F"
X       10.00000000      10.00000000      10.00000000       0.19212575       0.65230012       0.42573304      -0.59694525       1.00000000       2.00000000       1.00000000       0.21289355       0.16807308       0.16810090      -0.13449626      -0.00000000      -0.00022035
X       11.63336451      11.48752587      11.12021283      -0.43851913       0.60288986      -0.31741686       0.58606427       1.00000000       2.00000000       1.00000000      -0.21289355      -0.16807308      -0.16810090      -0.02837893       0.00000000      -0.15954753
2
Lattice="20.0 0.0 0.0 0.0 20.0 0.0 0.0 0.0 20.0" Properties=species:S:1:pos:R:3:quaternions:R:4:c_diameter\[1\]:R:1:c_diameter\[2\]:R:1:c_diameter\[3\]:R:1:forces:R:3:torques:R:3 energy=-0.02599004062717445 pbc="F F F"
X       10.00000000      10.00000000      10.00000000       0.19994221       0.69237675      -0.07893150       0.68877237       1.00000000       2.00000000       1.00000000       0.03750404       0.02010731       0.02481025       0.02303784      -0.00000000      -0.00972753
X       11.76101437      11.68844016      11.53226871       0.91276734      -0.00799743      -0.08676273      -0.39907902       1.00000000       2.00000000       1.00000000      -0.03750404      -0.02010731      -0.02481025      -0.00484032      -0.00000000       0.00621107
2
Lattice="20.0 0.0 0.0 0.0 20.0 0.0 0.0 0.0 20.0" Properties=species:S:1:pos:R:3:quaternions:R:4:c_diameter\[1\]:R:1:c_diameter\[2\]:R:1:c_diameter\[3\]:R:1:forces:R:3:torques:R:3 energy=-0.06431476879958467 pbc="F F F"
X       10.00000000      10.00000000      10.00000000       0.39828912      -0.31862049       0.24848455       0.82346960       1.00000000       2.00000000       1.00000000       0.05294777       0.10520607       0.13531750      -0.03457544       0.00000000      -0.05786138
X       11.01961408      11.24905078      11.66977256      -0.33941196       0.75997545      -0.11335809       0.54257423       1.00000000       2.00000000       1.00000000      -0.05294777      -0.10520607      -0.13531750      -0.02621011       0.00000000      -0.05581102
2
Lattice="20.0 0.0 0.0 0.0 20.0 0.0 0.0 0.0 20.0" Properties=species:S:1:pos:R:3:quaternions:R:4:c_diameter\[1\]:R:1:c_diameter\[2\]:R:1:c_diameter\[3\]:R:1:forces:R:3:torques:R:3 energy=-0.05548395926410258 pbc="F F F"
X       10.00000000      10.00000000      10.00000000       0.16616212       0.95732807      -0.23642554       0.00400934       1.00000000       2.00000000       1.00000000       0.07870516       0.01530018       0.09935309      -0.03511112       0.00000000      -0.05906034
X       11.77900065      11.08327896      11.76131400      -0.41498772       0.53770915      -0.01146597       0.73384099       1.00000000       2.00000000       1.00000000      -0.07870516      -0.01530018      -0.09935309       0.02684415      -0.00000000      -0.05389963
2
Lattice="20.0 0.0 0.0 0.0 20.0 0.0 0.0 0.0 20.0" Properties=species:S:1:pos:R:3:quaternions:R:4:c_diameter\[1\]:R:1:c_diameter\[2\]:R:1:c_diameter\[3\]:R:1:forces:R:3:torques:R:3 energy=-0.039540925856338734 pbc="F F F"
X       10.00000000      10.00000000      10.00000000      -0.65176377       0.11997254       0.19716274       0.72245237       1.00000000       2.00000000       1.00000000       0.02779909       0.07692811       0.04554530       0.02267548      -0.00000000      -0.01129537
X       11.01559134      11.89098388      11.06523751       0.48368082      -0.12414770       0.13789697       0.85535059       1.00000000       2.00000000       1.00000000      -0.02779909      -0.07692811      -0.04554530       0.00300266      -0.00000000      -0.01441245
2
Lattice="20.0 0.0 0.0 0.0 20.0 0.0 0.0 0.0 20.0" Properties=species:S:1:pos:R:3:quaternions:R:4:c_diameter\[1\]:R:1:c_diameter\[2\]:R:1:c_diameter\[3\]:R:1:forces:R:3:torques:R:3 energy=-0.024259336925574373 pbc="F F F"
X       10.00000000      10.00000000      10.00000000      -0.09047349       0.46989570       0.85731922      -0.18977973       1.00000000       2.00000000       1.00000000       0.01551676       0.02428671       0.03263345       0.02162113       0.00000000      -0.00244994
X       11.69544699      11.83285861      11.61392553       0.73937091       0.33162831      -0.13813469       0.56944897       1.00000000       2.00000000       1.00000000      -0.01551676      -0.02428671      -0.03263345      -0.01584376      -0.00000000      -0.00673038
2
Lattice="20.0 0.0 0.0 0.0 20.0 0.0 0.0 0.0 20.0" Properties=species:S:1:pos:R:3:quaternions:R:4:c_diameter\[1\]:R:1:c_diameter\[2\]:R:1:c_diameter\[3\]:R:1:forces:R:3:torques:R:3 energy=-0.02518306515854072 pbc="F F F"
X       10.00000000      10.00000000      10.00000000       0.56906958       0.65482376      -0.49660519      -0.02736656       1.00000000       2.00000000       1.00000000       0.02167856       0.04092621       0.01453668       0.01809753      -0.00000000       0.02109284
X       11.53739067      11.95485135      11.28787891       0.74915463       0.59637262       0.28189363      -0.06035745       1.00000000       2.00000000       1.00000000      -0.02167856      -0.04092621      -0.01453668      -0.00209054      -0.00000000      -0.01151782
2
Lattice="20.0 0.0 0.0 0.0 20.0 0.0 0.0 0.0 20.0" Properties=species:S:1:pos:R:3:quaternions:R:4:c_diameter\[1\]:R:1:c_diameter\[2\]:R:1:c_diameter\[3\]:R:1:forces:R:3:torques:R:3 energy=-0.15165724192866817 pbc="F F F"
X       10.00000000      10.00000000      10.00000000      -0.50725214       0.59081285       0.55797585       0.28687697       1.00000000       2.00000000       1.00000000       0.30321795       0.44458057       0.13516056      -0.06813432      -0.00000000       0.28373343
X       11.14424976      11.50841604      11.00165222       0.34714163      -0.42866645      -0.32695983       0.76735587       1.00000000       2.00000000       1.00000000      -0.30321795      -0.44458057      -0.13516056      -0.02002815      -0.00000000       0.01295112
2
Lattice="20.0 0.0 0.0 0.0 20.0 0.0 0.0 0.0 20.0" Properties=species:S:1:pos:R:3:quaternions:R:4:c_diameter\[1\]:R:1:c_diameter\[2\]:R:1:c_diameter\[3\]:R:1:forces:R:3:torques:R:3 energy=-0.0167195147375728 pbc="F F F"
X       10.00000000      10.00000000      10.00000000       0.89215830      -0.06003894      -0.43314707      -0.11328068       1.00000000       2.00000000       1.00000000       0.02266846       0.00735879       0.01683601      -0.01159884      -0.00000000       0.00108417
X       11.96173411      11.00420045      11.81097925       0.07570632      -0.41016718       0.56010057       0.71576448       1.00000000       2.00000000       1.00000000      -0.02266846      -0.00735879      -0.01683601       0.00182226      -0.00000000      -0.00548651
2
Lattice="20.0 0.0 0.0 0.0 20.0 0.0 0.0 0.0 20.0" Properties=species:S:1:pos:R:3:quaternions:R:4:c_diameter\[1\]:R:1:c_diameter\[2\]:R:1:c_diameter\[3\]:R:1:forces:R:3:torques:R:3 energy=-0.2223361174514628 pbc="F F F"
X       10.00000000      10.00000000      10.00000000      -0.21180158      -0.39150426      -0.21879525       0.86832779       1.00000000       2.00000000       1.00000000       0.43631434       0.38587905       0.41107994      -0.24814253      -0.00000000       0.16624920
X       11.20810998      11.98039685      11.20684995       0.26495353       0.17226078       0.94846569      -0.02320949       1.00000000       2.00000000       1.00000000      -0.43631434      -0.38587905      -0.41107994       0.41837400      -0.00000000       0.07002311
2
Lattice="20.0 0.0 0.0 0.0 20.0 0.0 0.0 0.0 20.0" Properties=species:S:1:pos:R:3:quaternions:R:4:c_diameter\[1\]:R:1:c_diameter\[2\]:R:1:c_diameter\[3\]:R:1:forces:R:3:torques:R:3 energy=-0.4329590919567896 pbc="F F F"
X       10.00000000      10.00000000      10.00000000       0.48497870       0.62138920      -0.25580634      -0.55967333       1.00000000       2.00000000       1.00000000       0.50258830       1.37275075       1.16139900       0.56189384      -0.00000000       0.47766000
X       11.20608001      11.35420711      11.17568284       0.31734576       0.61405040       0.53133141       0.48981701       1.00000000       2.00000000       1.00000000      -0.50258830      -1.37275075      -1.16139900      -0.37664094      -0.00000000       0.40775856
2
Lattice="20.0 0.0 0.0 0.0 20.0 0.0 0.0 0.0 20.0" Properties=species:S:1:pos:R:3:quaternions:R:4:c_diameter\[1\]:R:1:c_diameter\[2\]:R:1:c_diameter\[3\]:R:1:forces:R:3:torques:R:3 energy=-0.05099855124754533 pbc="F F F"
X       10.00000000      10.00000000      10.00000000       0.46374394       0.70397711       0.31822750       0.43369234       1.00000000       2.00000000       1.00000000       0.07552840       0.08801509       0.05816991      -0.00652961      -0.00000000      -0.00573652
X       11.30669652      11.38158250      11.51683609       0.32376128       0.26467313       0.66203766      -0.62195892       1.00000000       2.00000000       1.00000000      -0.07552840      -0.08801509      -0.05816991      -0.06335854      -0.00000000      -0.02191740
2
Lattice="20.0 0.0 0.0 0.0 20.0 0.0 0.0 0.0 20.0" Properties=species:S:1:pos:R:3:quaternions:R:4:c_diameter\[1\]:R:1:c_diameter\[2\]:R:1:c_diameter\[3\]:R:1:forces:R:3:torques:R:3 energy=-0.07841002909807049 pbc="F F F"
X       10.00000000      10.00000000      10.00000000       0.23965045      -0.65800997       0.70948339       0.07889140       1.00000000       2.00000000       1.00000000       0.11943316       0.11650038       0.17067382      -0.03593914       0.00000000       0.02851868
X       11.24678679      11.11370993      11.32031202      -0.01581721      -0.34835674       0.35663683       0.86672231       1.00000000       2.00000000       1.00000000      -0.11943316      -0.11650038      -0.17067382      -0.00037223      -0.00000000       0.04189050
2
Lattice="20.0 0.0 0.0 0.0 20.0 0.0 0.0 0.0 20.0" Properties=species:S:1:pos:R:3:quaternions:R:4:c_diameter\[1\]:R:1:c_diameter\[2\]:R:1:c_diameter\[3\]:R:1:forces:R:3:torques:R:3 energy=-0.06202934360727756 pbc="F F F"
X       10.00000000      10.00000000      10.00000000       0.79289421       0.35743027       0.46617858      -0.16198735       1.00000000       2.00000000       1.00000000       0.12089145       0.07960709       0.09650317      -0.01185196      -0.00000000      -0.00088728
X       11.47788706      11.04383551      11.23116523       0.14420868       0.83301160       0.22777070       0.48313149       1.00000000       2.00000000       1.00000000      -0.12089145      -0.07960709      -0.09650317       0.01555953      -0.00000000      -0.00546492
2
Lattice="20.0 0.0 0.0 0.0 20.0 0.0 0.0 0.0 20.0" Properties=species:S:1:pos:R:3:quaternions:R:4:c_diameter\[1\]:R:1:c_diameter\[2\]:R:1:c_diameter\[3\]:R:1:forces:R:3:torques:R:3 energy=-0.03271837937387107 pbc="F F F"
X       10.00000000      10.00000000      10.00000000       0.20102564       0.08160036       0.70301614       0.67727275       1.00000000       2.00000000       1.00000000       0.03248338       0.05110409       0.03212752      -0.03407162       0.00000000      -0.02183810
X       11.11011781      11.99482134      11.70649765      -0.49926937      -0.24391547       0.82839181       0.07072726       1.00000000       2.00000000       1.00000000      -0.03248338      -0.05110409      -0.03212752      -0.01285017      -0.00000000      -0.02103824
2
Lattice="20.0 0.0 0.0 0.0 20.0 0.0 0.0 0.0 20.0" Properties=species:S:1:pos:R:3:quaternions:R:4:c_diameter\[1\]:R:1:c_diameter\[2\]:R:1:c_diameter\[3\]:R:1:forces:R:3:torques:R:3 energy=-0.23542444926111705 pbc="F F F"
X       10.00000000      10.00000000      10.00000000       0.49965987       0.04001322      -0.47791356       0.72134429       1.00000000       2.00000000       1.00000000       0.64076501       0.29112223       0.68349678       0.04834577      -0.00000000       0.04668047
X       11.22231839      11.08654487      11.26194482      -0.17294588       0.01290774      -0.06492856       0.98270412       1.00000000       2.00000000       1.00000000      -0.64076501      -0.29112223      -0.68349678       0.40234310      -0.00000000       0.31761007
2
Lattice="20.0 0.0 0.0 0.0 20.0 0.0 0.0 0.0 20.0" Properties=species:S:1:pos:R:3:quaternions:R:4:c_diameter\[1\]:R:1:c_diameter\[2\]:R:1:c_diameter\[3\]:R:1:forces:R:3:torques:R:3 energy=-0.11381040219179445 pbc="F F F"
X       10.00000000      10.00000000      10.00000000      -0.45720555       0.21004884       0.78057189       0.37087747       1.00000000       2.00000000       1.00000000       0.19206081       0.16531741       0.24088536      -0.13260380       0.00000000      -0.09694627
X       11.27472526      11.06654662      11.89939320      -0.34669290       0.79230216       0.41430703      -0.28356834       1.00000000       2.00000000       1.00000000      -0.19206081      -0.16531741      -0.24088536       0.15413767      -0.00000000      -0.00106174
2
Lattice="20.0 0.0 0.0 0.0 20.0 0.0 0.0 0.0 20.0" Properties=species:S:1:pos:R:3:quaternions:R:4:c_diameter\[1\]:R:1:c_diameter\[2\]:R:1:c_diameter\[3\]:R:1:forces:R:3:torques:R:3 energy=-0.07054723695850938 pbc="F F F"
X       10.00000000      10.00000000      10.00000000       0.24494611       0.19147890      -0.63085736       0.71088411       1.00000000       2.00000000       1.00000000       0.08718649       0.11871049       0.10095573      -0.00579855      -0.00000000       0.10800305
X       11.49996644      11.26470973      11.92113013       0.29184377       0.72993420      -0.61805567      -0.00551993       1.00000000       2.00000000       1.00000000      -0.08718649      -0.11871049      -0.10095573      -0.02165959       0.00000000       0.10825154
2
Lattice="20.0 0.0 0.0 0.0 20.0 0.0 0.0 0.0 20.0" Properties=species:S:1:pos:R:3:quaternions:R:4:c_diameter\[1\]:R:1:c_diameter\[2\]:R:1:c_diameter\[3\]:R:1:forces:R:3:torques:R:3 energy=-0.016213449701346316 pbc="F F F"
X       10.00000000      10.00000000      10.00000000       0.43858332       0.52218658       0.72332449       0.10847828       1.00000000       2.00000000       1.00000000       0.00925244       0.01617586       0.02059994       0.00322335       0.00000000       0.01291216
X       11.20557991      11.94108294      11.80542999       0.90219024       0.18496918      -0.29289082      -0.25700999       1.00000000       2.00000000       1.00000000      -0.00925244      -0.01617586      -0.02059994      -0.00566746      -0.00000000       0.00017739
2
Lattice="20.0 0.0 0.0 0.0 20.0 0.0 0.0 0.0 20.0" Properties=species:S:1:pos:R:3:quaternions:R:4:c_diameter\[1\]:R:1:c_diameter\[2\]:R:1:c_diameter\[3\]:R:1:forces:R:3:torques:R:3 energy=-0.19584316688759978 pbc="F F F"
X       10.00000000      10.00000000      10.00000000      -0.02377413       0.94260734      -0.23284930      -0.23813315       1.00000000       2.00000000       1.00000000       0.44218735       0.41292738       0.40507324      -0.37465391       0.00000000       0.00821319
X       11.08288454      11.61464678      11.26172921       0.61660882      -0.39115189      -0.49968513      -0.46594906       1.00000000       2.00000000       1.00000000      -0.44218735      -0.41292738      -0.40507324      -0.29458305       0.00000000       0.18317979
2
Lattice="20.0 0.0 0.0 0.0 20.0 0.0 0.0 0.0 20.0" Properties=species:S:1:pos:R:3:quaternions:R:4:c_diameter\[1\]:R:1:c_diameter\[2\]:R:1:c_diameter\[3\]:R:1:forces:R:3:torques:R:3 energy=-0.030587750162756455 pbc="F F F"
X       10.00000000      10.00000000      10.00000000       0.05124191       0.82807597      -0.54332013      -0.12832647       1.00000000       2.00000000       1.00000000       0.02228153       0.03833553       0.03604995      -0.01883283      -0.00000000       0.01536187
X       11.88709800      11.91436102      11.34413184       0.04097467       0.68561866       0.66124412      -0.30166928       1.00000000       2.00000000       1.00000000      -0.02228153      -0.03833553      -0.03604995       0.02394224      -0.00000000       0.01369398
2
Lattice="20.0 0.0 0.0 0.0 20.0 0.0 0.0 0.0 20.0" Properties=species:S:1:pos:R:3:quaternions:R:4:c_diameter\[1\]:R:1:c_diameter\[2\]:R:1:c_diameter\[3\]:R:1:forces:R:3:torques:R:3 energy=-0.07015442361052505 pbc="F F F"
X       10.00000000      10.00000000      10.00000000      -0.47436315       0.41856979      -0.50702044       0.58541370       1.00000000       2.00000000       1.00000000       0.06415775       0.10129292       0.11297037      -0.07233129       0.00000000      -0.07819096
X       11.53470596      11.82289564      11.71731855       0.85217577      -0.14848287       0.41045271       0.28857906       1.00000000       2.00000000       1.00000000      -0.06415775      -0.10129292      -0.11297037       0.00669363      -0.00000000       0.06069941
2
Lattice="20.0 0.0 0.0 0.0 20.0 0.0 0.0 0.0 20.0" Properties=species:S:1:pos:R:3:quaternions:R:4:c_diameter\[1\]:R:1:c_diameter\[2\]:R:1:c_diameter\[3\]:R:1:forces:R:3:torques:R:3 energy=-0.1603063913506497 pbc="F F F"
X       10.00000000      10.00000000      10.00000000      -0.11318005      -0.62165654      -0.46138815       0.62277957       1.00000000       2.00000000       1.00000000       0.45773911       0.24342147       0.29256059      -0.21418173       0.00000000      -0.01624732
X       11.22447144      11.21825060      11.08942143      -0.11205004       0.97652564       0.04795168      -0.17760379       1.00000000       2.00000000       1.00000000      -0.45773911      -0.24342147      -0.29256059      -0.18078603       0.00000000      -0.05562486
2
Lattice="20.0 0.0 0.0 0.0 20.0 0.0 0.0 0.0 20.0" Properties=species:S:1:pos:R:3:quaternions:R:4:c_diameter\[1\]:R:1:c_diameter\[2\]:R:1:c_diameter\[3\]:R:1:forces:R:3:torques:R:3 energy=-0.028780274875240933 pbc="F F F"
X       10.00000000      10.00000000      10.00000000       0.26361272      -0.55659984       0.72483207       0.30874493       1.00000000       2.00000000       1.00000000       0.04237462       0.02179048       0.02936231       0.01515955      -0.00000000      -0.01973662
X       11.40549087      11.32001455      11.94373126       0.12621196      -0.40363003       0.85446088       0.30174482       1.00000000       2.00000000       1.00000000      -0.04237462      -0.02179048      -0.02936231       0.02187576       0.00000000      -0.01515085
2
Lattice="20.0 0.0 0.0 0.0 20.0 0.0 0.0 0.0 20.0" Properties=species:S:1:pos:R:3:quaternions:R:4:c_diameter\[1\]:R:1:c_diameter\[2\]:R:1:c_diameter\[3\]:R:1:forces:R:3:torques:R:3 energy=-0.1309286268108092 pbc="F F F"
X       10.00000000      10.00000000      10.00000000       0.79111632       0.59036295      -0.09095047      -0.13166084       1.00000000       2.00000000       1.00000000       0.28272896       0.26273863       0.09020632       0.17123881      -0.00000000      -0.06731381
X       11.46698127      11.37454545      11.30838891       0.47839233       0.75047480      -0.28326705       0.35733477       1.00000000       2.00000000       1.00000000      -0.28272896      -0.26273863      -0.09020632       0.19935321       0.00000000      -0.07193390
2
Lattice="20.0 0.0 0.0 0.0 20.0 0.0 0.0 0.0 20.0" Properties=species:S:1:pos:R:3:quaternions:R:4:c_diameter\[1\]:R:1:c_diameter\[2\]:R:1:c_diameter\[3\]:R:1:forces:R:3:torques:R:3 energy=-0.15865480358811876 pbc="F F F"
X       10.00000000      10.00000000      10.00000000       0.50555313      -0.47402778       0.08628133       0.71572985       1.00000000       2.00000000       1.00000000       0.15910855       0.28157574       0.36089467       0.04874348      -0.00000000      -0.24701695
X       11.35761426      11.06571732      11.94133661      -0.11707697       0.45750844       0.81912000       0.32560934       1.00000000       2.00000000       1.00000000      -0.15910855      -0.28157574      -0.36089467       0.11310059      -0.00000000       0.08243747
2
Lattice="20.0 0.0 0.0 0.0 20.0 0.0 0.0 0.0 20.0" Properties=species:S:1:pos:R:3:quaternions:R:4:c_diameter\[1\]:R:1:c_diameter\[2\]:R:1:c_diameter\[3\]:R:1:forces:R:3:torques:R:3 energy=-0.010750622812906617 pbc="F F F"
X       10.00000000      10.00000000      10.00000000      -0.16288898       0.52298990       0.22030386       0.80710281       1.00000000       2.00000000       1.00000000       0.01132016       0.00709865       0.00888673       0.00268392      -0.00000000      -0.00126144
X       11.89026252      11.63309343      11.84906488      -0.29990765      -0.13663304       0.78308220       0.52741737       1.00000000       2.00000000       1.00000000      -0.01132016      -0.00709865      -0.00888673      -0.00330765      -0.00000000      -0.00538417
2
Lattice="20.0 0.0 0.0 0.0 20.0 0.0 0.0 0.0 20.0" Properties=species:S:1:pos:R:3:quaternions:R:4:c_diameter\[1\]:R:1:c_diameter\[2\]:R:1:c_diameter\[3\]:R:1:forces:R:3:torques:R:3 energy=-0.010539976356159223 pbc="F F F"
X       10.00000000      10.00000000      10.00000000      -0.03828303       0.14451568       0.36629100       0.91841196       1.00000000       2.00000000       1.00000000       0.00523118       0.01001636       0.01051957       0.00061608       0.00000000       0.00060303
X       11.56957883      11.98720197      11.93894388       0.71074386       0.24076393       0.19897684       0.63030477       1.00000000       2.00000000       1.00000000      -0.00523118      -0.01001636      -0.01051957      -0.00829566       0.00000000      -0.00128098
2
Lattice="20.0 0.0 0.0 0.0 20.0 0.0 0.0 0.0 20.0" Properties=species:S:1:pos:R:3:quaternions:R:4:c_diameter\[1\]:R:1:c_diameter\[2\]:R:1:c_diameter\[3\]:R:1:forces:R:3:torques:R:3 energy=-0.14828670551116752 pbc="F F F"
X       10.00000000      10.00000000      10.00000000       0.49452708       0.66183850      -0.27452186      -0.49198630       1.00000000       2.00000000       1.00000000       0.11522172       0.29630011       0.27711545       0.11313391      -0.00000000       0.20740732
X       11.44171257      11.34628945      11.82084691      -0.49920935      -0.05511173      -0.54739593       0.66941050       1.00000000       2.00000000       1.00000000      -0.11522172      -0.29630011      -0.27711545      -0.18906612       0.00000000      -0.17560573
2
Lattice="20.0 0.0 0.0 0.0 20.0 0.0 0.0 0.0 20.0" Properties=species:S:1:pos:R:3:quaternions:R:4:c_diameter\[1\]:R:1:c_diameter\[2\]:R:1:c_diameter\[3\]:R:1:forces:R:3:torques:R:3 energy=-0.1999837224025085 pbc="F F F"
X       10.00000000      10.00000000      10.00000000      -0.38258963       0.79365138       0.45450189       0.13103697       1.00000000       2.00000000       1.00000000       0.21626525       0.48814555       0.41400122       0.19349880       0.00000000       0.25476391
X       11.14026249      11.56865391      11.60960136       0.06804389       0.74602573      -0.36982066       0.54958922       1.00000000       2.00000000       1.00000000      -0.21626525      -0.48814555      -0.41400122      -0.07924458      -0.00000000      -0.11382670
2
Lattice="20.0 0.0 0.0 0.0 20.0 0.0 0.0 0.0 20.0" Properties=species:S:1:pos:R:3:quaternions:R:4:c_diameter\[1\]:R:1:c_diameter\[2\]:R:1:c_diameter\[3\]:R:1:forces:R:3:torques:R:3 energy=-0.029629729154003814 pbc="F F F"
X       10.00000000      10.00000000      10.00000000      -0.18708708       0.97725709      -0.09798336      -0.01913811       1.00000000       2.00000000       1.00000000       0.02378469       0.01912863       0.04459403      -0.03322636       0.00000000       0.00147722
X       11.09515927      11.94742503      11.97658501       0.05905946       0.47232174      -0.03166368       0.87887517       1.00000000       2.00000000       1.00000000      -0.02378469      -0.01912863      -0.04459403       0.03146958       0.00000000       0.00107135
2
Lattice="20.0 0.0 0.0 0.0 20.0 0.0 0.0 0.0 20.0" Properties=species:S:1:pos:R:3:quaternions:R:4:c_diameter\[1\]:R:1:c_diameter\[2\]:R:1:c_diameter\[3\]:R:1:forces:R:3:torques:R:3 energy=-0.30328943362048955 pbc="F F F"
X       10.00000000      10.00000000      10.00000000       0.30860158       0.80770923      -0.49133353       0.10470068       1.00000000       2.00000000       1.00000000       0.35607741       0.75326939       0.68273839      -0.12330969      -0.00000000       0.29230390
X       11.38847466      11.19123603      11.64288888      -0.46904006      -0.60913895       0.63946059      -0.00642820       1.00000000       2.00000000       1.00000000      -0.35607741      -0.75326939      -0.68273839       0.19380870       0.00000000       0.51441085
2
Lattice="20.0 0.0 0.0 0.0 20.0 0.0 0.0 0.0 20.0" Properties=species:S:1:pos:R:3:quaternions:R:4:c_diameter\[1\]:R:1:c_diameter\[2\]:R:1:c_diameter\[3\]:R:1:forces:R:3:torques:R:3 energy=-0.08292331901476581 pbc="F F F"
X       10.00000000      10.00000000      10.00000000       0.46165476      -0.16511884       0.84467594       0.21478643       1.00000000       2.00000000       1.00000000       0.11298316       0.03934658       0.15853499       0.13148367      -0.00000000      -0.01737847
X       11.44966132      11.43003201      11.97588280       0.78190635       0.03908361       0.51606339       0.34752483       1.00000000       2.00000000       1.00000000      -0.11298316      -0.03934658      -0.15853499      -0.05479476      -0.00000000       0.10586852
2
Lattice="20.0 0.0 0.0 0.0 20.0 0.0 0.0 0.0 20.0" Properties=species:S:1:pos:R:3:quaternions:R:4:c_diameter\[1\]:R:1:c_diameter\[2\]:R:1:c_diameter\[3\]:R:1:forces:R:3:torques:R:3 energy=-1.3395235513137542 pbc="F F F"
X       10.00000000      10.00000000      10.00000000      -0.18685377      -0.06132585      -0.32591278       0.92471924       1.00000000       2.00000000       1.00000000       5.30046108       1.67533968       3.57231578       0.21019030       0.00000000       3.02610027
X       11.53973296      11.10885932      11.33332077      -0.58748437       0.47549114       0.65389547      -0.03451100       1.00000000       2.00000000       1.00000000      -5.30046108      -1.67533968      -3.57231578      -0.73846879      -0.00000000      -0.89007349
2
Lattice="20.0 0.0 0.0 0.0 20.0 0.0 0.0 0.0 20.0" Properties=species:S:1:pos:R:3:quaternions:R:4:c_diameter\[1\]:R:1:c_diameter\[2\]:R:1:c_diameter\[3\]:R:1:forces:R:3:torques:R:3 energy=-0.036223680859395 pbc="F F F"
X       10.00000000      10.00000000      10.00000000       0.42657573       0.64095132       0.63575912      -0.05499899       1.00000000       2.00000000       1.00000000       0.04296456       0.03357423       0.05777346       0.00511133       0.00000000       0.02841465
X       11.69267316      11.26886959      11.37248353      -0.56810021      -0.05336333       0.70108702      -0.42765815       1.00000000       2.00000000       1.00000000      -0.04296456      -0.03357423      -0.05777346      -0.01767210       0.00000000      -0.02013351
2
Lattice="20.0 0.0 0.0 0.0 20.0 0.0 0.0 0.0 20.0" Properties=species:S:1:pos:R:3:quaternions:R:4:c_diameter\[1\]:R:1:c_diameter\[2\]:R:1:c_diameter\[3\]:R:1:forces:R:3:torques:R:3 energy=-0.013914087030169752 pbc="F F F"
X       10.00000000      10.00000000      10.00000000      -0.21049592       0.33723320       0.66323160      -0.63410495       1.00000000       2.00000000       1.00000000       0.01387754       0.01550693       0.00657074       0.00163239      -0.00000000       0.00262566
X       11.96399183      11.96633212      11.47911665       0.34587888      -0.22938052       0.63000079       0.65639270       1.00000000       2.00000000       1.00000000      -0.01387754      -0.01550693      -0.00657074      -0.00374515      -0.00000000      -0.01223538
2
Lattice="20.0 0.0 0.0 0.0 20.0 0.0 0.0 0.0 20.0" Properties=species:S:1:pos:R:3:quaternions:R:4:c_diameter\[1\]:R:1:c_diameter\[2\]:R:1:c_diameter\[3\]:R:1:forces:R:3:torques:R:3 energy=-0.07963084509077992 pbc="F F F"
X       10.00000000      10.00000000      10.00000000      -0.36320766       0.73358641      -0.52099258       0.24186340       1.00000000       2.00000000       1.00000000       0.11408494       0.15138611       0.14176870      -0.10748783       0.00000000      -0.04097020
X       11.52573755      11.24681464      11.13794342      -0.40717479      -0.36335979       0.82249911      -0.16022973       1.00000000       2.00000000       1.00000000      -0.11408494      -0.15138611      -0.14176870       0.01372537      -0.00000000       0.04663026
2
Lattice="20.0 0.0 0.0 0.0 20.0 0.0 0.0 0.0 20.0" Properties=species:S:1:pos:R:3:quaternions:R:4:c_diameter\[1\]:R:1:c_diameter\[2\]:R:1:c_diameter\[3\]:R:1:forces:R:3:torques:R:3 energy=-0.09195088796545833 pbc="F F F"
X       10.00000000      10.00000000      10.00000000       0.31877050      -0.05765817      -0.03087316       0.94557271       1.00000000       2.00000000       1.00000000       0.18222883       0.16699567       0.12836119       0.04858727       0.00000000       0.04687363
X       11.03111692      11.46371637      11.43959940       0.32705480       0.59215148       0.48980988      -0.54998006       1.00000000       2.00000000       1.00000000      -0.18222883      -0.16699567      -0.12836119      -0.11733651      -0.00000000      -0.08717719
2
Lattice="20.0 0.0 0.0 0.0 20.0 0.0 0.0 0.0 20.0" Properties=species:S:1:pos:R:3:quaternions:R:4:c_diameter\[1\]:R:1:c_diameter\[2\]:R:1:c_diameter\[3\]:R:1:forces:R:3:torques:R:3 energy=-0.22193745773769605 pbc="F F F"
X       10.00000000      10.00000000      10.00000000      -0.15484422       0.95721107       0.24442901      -0.00496970       1.00000000       2.00000000       1.00000000       0.54913761       0.64178277       0.26744710      -0.07122093       0.00000000      -0.17353759
X       11.07608314      11.56712922      11.07073699       0.48454236       0.79692456      -0.30979122       0.18482246       1.00000000       2.00000000       1.00000000      -0.54913761      -0.64178277      -0.26744710       0.46779671      -0.00000000      -0.00522368
2
Lattice="20.0 0.0 0.0 0.0 20.0 0.0 0.0 0.0 20.0" Properties=species:S:1:pos:R:3:quaternions:R:4:c_diameter\[1\]:R:1:c_diameter\[2\]:R:1:c_diameter\[3\]:R:1:forces:R:3:torques:R:3 energy=-0.1307390733397625 pbc="F F F"
X       10.00000000      10.00000000      10.00000000       0.20117924      -0.00094158       0.87551822       0.43931067       1.00000000       2.00000000       1.00000000       0.17454005       0.23677529       0.26196627      -0.00162073       0.00000000      -0.13384877
X       11.09317629      11.81616662      11.54936167      -0.27875036       0.25367623       0.88973125      -0.25753624       1.00000000       2.00000000       1.00000000      -0.17454005      -0.23677529      -0.26196627       0.16025919       0.00000000      -0.11941668
2
Lattice="20.0 0.0 0.0 0.0 20.0 0.0 0.0 0.0 20.0" Properties=species:S:1:pos:R:3:quaternions:R:4:c_diameter\[1\]:R:1:c_diameter\[2\]:R:1:c_diameter\[3\]:R:1:forces:R:3:torques:R:3 energy=-0.07548326575204796 pbc="F F F"
X       10.00000000      10.00000000      10.00000000       0.26005393      -0.61804598       0.31381340       0.67224420       1.00000000       2.00000000       1.00000000       0.11484512       0.08377708       0.15862315       0.00224731       0.00000000      -0.03437018
X       11.59731898      11.02322566      11.50254663      -0.36515039      -0.36197265       0.24529298       0.82187124       1.00000000       2.00000000       1.00000000      -0.11484512      -0.08377708      -0.15862315       0.07861090      -0.00000000       0.07788015
2
Lattice="20.0 0.0 0.0 0.0 20.0 0.0 0.0 0.0 20.0" Properties=species:S:1:pos:R:3:quaternions:R:4:c_diameter\[1\]:R:1:c_diameter\[2\]:R:1:c_diameter\[3\]:R:1:forces:R:3:torques:R:3 energy=-0.6530902123740843 pbc="F F F"
X       10.00000000      10.00000000      10.00000000       0.24120525       0.40194768      -0.37136004       0.80146729       1.00000000       2.00000000       1.00000000       1.88803301       2.01765745       1.70811672       1.02336203       0.00000000       1.10370260
X       11.13160232      11.05862924      11.50371790       0.69668937       0.12056499       0.30396687      -0.63850775       1.00000000       2.00000000       1.00000000      -1.88803301      -2.01765745      -1.70811672      -0.07932574      -0.00000000      -1.53163283
2
Lattice="20.0 0.0 0.0 0.0 20.0 0.0 0.0 0.0 20.0" Properties=species:S:1:pos:R:3:quaternions:R:4:c_diameter\[1\]:R:1:c_diameter\[2\]:R:1:c_diameter\[3\]:R:1:forces:R:3:torques:R:3 energy=-0.019590395667752215 pbc="F F F"
X       10.00000000      10.00000000      10.00000000       0.90924314       0.21528404      -0.31566679       0.16517919       1.00000000       2.00000000       1.00000000       0.01605454       0.01709196       0.02639368      -0.00710838      -0.00000000      -0.00029869
X       11.81238268      11.30040421      11.84872774       0.07754497      -0.65316097       0.74495046      -0.11142860       1.00000000       2.00000000       1.00000000      -0.01605454      -0.01709196      -0.02639368      -0.01841103       0.00000000       0.00895293
2
Lattice="20.0 0.0 0.0 0.0 20.0 0.0 0.0 0.0 20.0" Properties=species:S:1:pos:R:3:quaternions:R:4:c_diameter\[1\]:R:1:c_diameter\[2\]:R:1:c_diameter\[3\]:R:1:forces:R:3:torques:R:3 energy=-0.13983155984918874 pbc="F F F"
X       10.00000000      10.00000000      10.00000000       0.18913976      -0.54365103       0.19611227       0.79385747       1.00000000       2.00000000       1.00000000       0.38998918       0.20879860       0.25158415      -0.00132352      -0.00000000       0.04745028
X       11.26307569      11.10272281      11.18466738       0.84052260      -0.41714900       0.34451636      -0.02858218       1.00000000       2.00000000       1.00000000      -0.38998918      -0.20879860      -0.25158415       0.13659999      -0.00000000       0.16376618
2
Lattice="20.0 0.0 0.0 0.0 20.0 0.0 0.0 0.0 20.0" Properties=species:S:1:pos:R:3:quaternions:R:4:c_diameter\[1\]:R:1:c_diameter\[2\]:R:1:c_diameter\[3\]:R:1:forces:R:3:torques:R:3 energy=-0.03017020856810634 pbc="F F F"
X       10.00000000      10.00000000      10.00000000      -0.11813594       0.77545168       0.46227857       0.41354217       1.00000000       2.00000000       1.00000000       0.01941840       0.03221686       0.04960861       0.00698231       0.00000000       0.01825140
X       11.08908775      11.66176309      11.97864217       0.00627070       0.98370900      -0.08962371      -0.15570765       1.00000000       2.00000000       1.00000000      -0.01941840      -0.03221686      -0.04960861      -0.03439220       0.00000000       0.00583607
2
Lattice="20.0 0.0 0.0 0.0 20.0 0.0 0.0 0.0 20.0" Properties=species:S:1:pos:R:3:quaternions:R:4:c_diameter\[1\]:R:1:c_diameter\[2\]:R:1:c_diameter\[3\]:R:1:forces:R:3:torques:R:3 energy=-0.428436671545167 pbc="F F F"
X       10.00000000      10.00000000      10.00000000      -0.41057384      -0.53993529      -0.08308684       0.73006547       1.00000000       2.00000000       1.00000000       0.69734901       1.07216890       0.92150429      -0.10588237      -0.00000000      -0.11503017
X       11.48835563      11.69283897      11.21364755       0.78160341       0.18954853       0.39178069       0.44685048       1.00000000       2.00000000       1.00000000      -0.69734901      -1.07216890      -0.92150429      -0.80187730      -0.00000000       0.29212647
2
Lattice="20.0 0.0 0.0 0.0 20.0 0.0 0.0 0.0 20.0" Properties=species:S:1:pos:R:3:quaternions:R:4:c_diameter\[1\]:R:1:c_diameter\[2\]:R:1:c_diameter\[3\]:R:1:forces:R:3:torques:R:3 energy=-0.017261923499109277 pbc="F F F"
X       10.00000000      10.00000000      10.00000000       0.17427515       0.26210527       0.14997256       0.93724982       1.00000000       2.00000000       1.00000000       0.01303710       0.01381169       0.02221083       0.00662073      -0.00000000       0.00297592
X       11.69665332      11.75796913      11.82220388       0.46814140       0.44780422       0.73554511       0.19821304       1.00000000       2.00000000       1.00000000      -0.01303710      -0.01381169      -0.02221083       0.00274817      -0.00000000       0.01852008
2
Lattice="20.0 0.0 0.0 0.0 20.0 0.0 0.0 0.0 20.0" Properties=species:S:1:pos:R:3:quaternions:R:4:c_diameter\[1\]:R:1:c_diameter\[2\]:R:1:c_diameter\[3\]:R:1:forces:R:3:torques:R:3 energy=-0.05891363018715585 pbc="F F F"
X       10.00000000      10.00000000      10.00000000       0.51390806       0.53679060       0.48185605      -0.46429420       1.00000000       2.00000000       1.00000000       0.10230495       0.07890584       0.02984221      -0.05761273       0.00000000      -0.03505541
X       11.75193539      11.27996817      11.52247323      -0.46016129       0.55765436       0.47372008       0.50285434       1.00000000       2.00000000       1.00000000      -0.10230495      -0.07890584      -0.02984221      -0.03997403      -0.00000000       0.05427857
2
Lattice="20.0 0.0 0.0 0.0 20.0 0.0 0.0 0.0 20.0" Properties=species:S:1:pos:R:3:quaternions:R:4:c_diameter\[1\]:R:1:c_diameter\[2\]:R:1:c_diameter\[3\]:R:1:forces:R:3:torques:R:3 energy=-0.017992725850486436 pbc="F F F"
X       10.00000000      10.00000000      10.00000000      -0.08593078       0.99567238      -0.03533384       0.00198360       1.00000000       2.00000000       1.00000000       0.02029258       0.00702175       0.01956173      -0.01593276       0.00000000      -0.00614861
X       11.87136949      11.72197453      11.76401717       0.94035872       0.06542645      -0.29429529      -0.15759170       1.00000000       2.00000000       1.00000000      -0.02029258      -0.00702175      -0.01956173      -0.01350041      -0.00000000       0.00975802
2
Lattice="20.0 0.0 0.0 0.0 20.0 0.0 0.0 0.0 20.0" Properties=species:S:1:pos:R:3:quaternions:R:4:c_diameter\[1\]:R:1:c_diameter\[2\]:R:1:c_diameter\[3\]:R:1:forces:R:3:torques:R:3 energy=-0.031047665911723945 pbc="F F F"
X       10.00000000      10.00000000      10.00000000       0.68536676       0.48896769      -0.53851775      -0.03437491       1.00000000       2.00000000       1.00000000       0.03550336       0.04138788       0.03349451       0.01008412      -0.00000000       0.01052996
X       11.74105833      11.96002827      11.09467183       0.90941707       0.21111514       0.32768469       0.14496117       1.00000000       2.00000000       1.00000000      -0.03550336      -0.04138788      -0.03349451      -0.02160234      -0.00000000       0.02918091
2
Lattice="20.0 0.0 0.0 0.0 20.0 0.0 0.0 0.0 20.0" Properties=species:S:1:pos:R:3:quaternions:R:4:c_diameter\[1\]:R:1:c_diameter\[2\]:R:1:c_diameter\[3\]:R:1:forces:R:3:torques:R:3 energy=-0.053519368691124204 pbc="F F F"
X       10.00000000      10.00000000      10.00000000       0.13840898      -0.38061061       0.02355373       0.91401518       1.00000000       2.00000000       1.00000000       0.06951978       0.07858714       0.08481452       0.00939551       0.00000000       0.03814054
X       11.63146222      11.39600093      11.39975254       0.69618863       0.43158773      -0.31462761      -0.47964872       1.00000000       2.00000000       1.00000000      -0.06951978      -0.07858714      -0.08481452       0.07060135       0.00000000       0.01954374
2
Lattice="20.0 0.0 0.0 0.0 20.0 0.0 0.0 0.0 20.0" Properties=species:S:1:pos:R:3:quaternions:R:4:c_diameter\[1\]:R:1:c_diameter\[2\]:R:1:c_diameter\[3\]:R:1:forces:R:3:torques:R:3 energy=-0.059074548834936375 pbc="F F F"
X       10.00000000      10.00000000      10.00000000      -0.37802665      -0.56344294       0.73076422       0.07491030       1.00000000       2.00000000       1.00000000       0.05550686       0.07828092       0.12540004      -0.01414234       0.00000000       0.06618504
X       11.18539601      11.31664058      11.66594689       0.86248777       0.09628450       0.49678991       0.00662729       1.00000000       2.00000000       1.00000000      -0.05550686      -0.07828092      -0.12540004      -0.01779606       0.00000000       0.06767284
2
Lattice="20.0 0.0 0.0 0.0 20.0 0.0 0.0 0.0 20.0" Properties=species:S:1:pos:R:3:quaternions:R:4:c_diameter\[1\]:R:1:c_diameter\[2\]:R:1:c_diameter\[3\]:R:1:forces:R:3:torques:R:3 energy=-0.08839501919556017 pbc="F F F"
X       10.00000000      10.00000000      10.00000000      -0.00169670       0.20439520       0.53589005       0.81917127       1.00000000       2.00000000       1.00000000       0.11242017       0.14716002       0.15879322      -0.10385727       0.00000000      -0.00769726
X       11.17656351      11.58350340      11.80330144      -0.22361291      -0.15374523      -0.17956895       0.94557637       1.00000000       2.00000000       1.00000000      -0.11242017      -0.14716002      -0.15879322       0.06250378      -0.00000000       0.06027940
2
Lattice="20.0 0.0 0.0 0.0 20.0 0.0 0.0 0.0 20.0" Properties=species:S:1:pos:R:3:quaternions:R:4:c_diameter\[1\]:R:1:c_diameter\[2\]:R:1:c_diameter\[3\]:R:1:forces:R:3:torques:R:3 energy=-0.06139897456014382 pbc="F F F"
X       10.00000000      10.00000000      10.00000000      -0.40219184      -0.26428800       0.79522235      -0.36880210       1.00000000       2.00000000       1.00000000       0.08432635       0.11108237       0.08098381       0.00539598       0.00000000       0.01896681
X       11.79519375      11.39645170      11.10957437      -0.47916757       0.46543600      -0.44772429       0.59439947       1.00000000       2.00000000       1.00000000      -0.08432635      -0.11108237      -0.08098381      -0.06011196       0.00000000      -0.07321302
2
Lattice="20.0 0.0 0.0 0.0 20.0 0.0 0.0 0.0 20.0" Properties=species:S:1:pos:R:3:quaternions:R:4:c_diameter\[1\]:R:1:c_diameter\[2\]:R:1:c_diameter\[3\]:R:1:forces:R:3:torques:R:3 energy=-0.06588569179183558 pbc="F F F"
X       10.00000000      10.00000000      10.00000000       0.21275809       0.02156293      -0.20778298       0.95451310       1.00000000       2.00000000       1.00000000       0.11700117       0.05093512       0.08333636       0.01369186      -0.00000000       0.08111632
X       11.43872864      11.66689273      11.49132644       0.08440532      -0.05486867       0.98828813       0.11468105       1.00000000       2.00000000       1.00000000      -0.11700117      -0.05093512      -0.08333636       0.06856711      -0.00000000      -0.03885340
2
Lattice="20.0 0.0 0.0 0.0 20.0 0.0 0.0 0.0 20.0" Properties=species:S:1:pos:R:3:quaternions:R:4:c_diameter\[1\]:R:1:c_diameter\[2\]:R:1:c_diameter\[3\]:R:1:forces:R:3:torques:R:3 energy=-0.19602303858254427 pbc="F F F"
X       10.00000000      10.00000000      10.00000000      -0.38243390       0.39245516       0.66783584      -0.50370483       1.00000000       2.00000000       1.00000000       0.39386624       0.50966131       0.45103907       0.23456652       0.00000000      -0.18104941
X       11.27775238      11.02191055      11.22538520       0.39539524      -0.48453847       0.42178051       0.65649545       1.00000000       2.00000000       1.00000000      -0.39386624      -0.50966131      -0.45103907       0.06765193      -0.00000000      -0.30585816
2
Lattice="20.0 0.0 0.0 0.0 20.0 0.0 0.0 0.0 20.0" Properties=species:S:1:pos:R:3:quaternions:R:4:c_diameter\[1\]:R:1:c_diameter\[2\]:R:1:c_diameter\[3\]:R:1:forces:R:3:torques:R:3 energy=-0.2945782214110789 pbc="F F F"
X       10.00000000      10.00000000      10.00000000       0.74491386      -0.06547487      -0.38654836       0.53981177       1.00000000       2.00000000       1.00000000       0.58063319       0.27682985       0.98366251      -0.22545166      -0.00000000      -0.32366592
X       11.27173732      11.04543216      11.57864933       0.63966394      -0.02708044       0.67208321       0.37202266       1.00000000       2.00000000       1.00000000      -0.58063319      -0.27682985      -0.98366251       0.34102700      -0.00000000       0.37635439
2
Lattice="20.0 0.0 0.0 0.0 20.0 0.0 0.0 0.0 20.0" Properties=species:S:1:pos:R:3:quaternions:R:4:c_diameter\[1\]:R:1:c_diameter\[2\]:R:1:c_diameter\[3\]:R:1:forces:R:3:torques:R:3 energy=-0.01994807293106818 pbc="F F F"
X       10.00000000      10.00000000      10.00000000       0.17151365      -0.64279159       0.74457160      -0.05491061       1.00000000       2.00000000       1.00000000       0.00779079       0.02354720       0.02428198      -0.01205822      -0.00000000       0.00446064
X       11.26477482      11.74996059      11.85486395      -0.29201196       0.62291275       0.51345873      -0.51290238       1.00000000       2.00000000       1.00000000      -0.00779079      -0.02354720      -0.02428198       0.00951773       0.00000000      -0.00331046
2
Lattice="20.0 0.0 0.0 0.0 20.0 0.0 0.0 0.0 20.0" Properties=species:S:1:pos:R:3:quaternions:R:4:c_diameter\[1\]:R:1:c_diameter\[2\]:R:1:c_diameter\[3\]:R:1:forces:R:3:torques:R:3 energy=-0.054963002820941416 pbc="F F F"
X       10.00000000      10.00000000      10.00000000      -0.14559795       0.74667858       0.24295416       0.60186844       1.00000000       2.00000000       1.00000000       0.07338870       0.06683578       0.10010083      -0.00730034       0.00000000       0.01133312
X       11.76834471      11.00970354      11.46443894       0.36604228       0.61940029      -0.53216323      -0.44627192       1.00000000       2.00000000       1.00000000      -0.07338870      -0.06683578      -0.10010083       0.00867462       0.00000000       0.08177925
2
Lattice="20.0 0.0 0.0 0.0 20.0 0.0 0.0 0.0 20.0" Properties=species:S:1:pos:R:3:quaternions:R:4:c_diameter\[1\]:R:1:c_diameter\[2\]:R:1:c_diameter\[3\]:R:1:forces:R:3:torques:R:3 energy=-0.586920273510518 pbc="F F F"
X       10.00000000      10.00000000      10.00000000       0.11264243       0.75527302      -0.46444857       0.44851074       1.00000000       2.00000000       1.00000000       1.54580459       2.19155407       1.05508804       0.02898294      -0.00000000       0.79180582
X       11.01352067      11.58489204      11.01827605      -0.53325947      -0.22354188       0.76229175       0.29081721       1.00000000       2.00000000       1.00000000      -1.54580459      -2.19155407      -1.05508804      -0.60915659      -0.00000000      -0.43023866
2
Lattice="20.0 0.0 0.0 0.0 20.0 0.0 0.0 0.0 20.0" Properties=species:S:1:pos:R:3:quaternions:R:4:c_diameter\[1\]:R:1:c_diameter\[2\]:R:1:c_diameter\[3\]:R:1:forces:R:3:torques:R:3 energy=-0.036637387901250346 pbc="F F F"
X       10.00000000      10.00000000      10.00000000      -0.51516591      -0.46343273       0.47398452       0.54329814       1.00000000       2.00000000       1.00000000       0.02649480       0.05279692       0.04828707       0.03975876      -0.00000000       0.01066750
X       11.67953012      11.66439461      11.34396432      -0.56592259       0.04153040       0.37394663       0.73360123       1.00000000       2.00000000       1.00000000      -0.02649480      -0.05279692      -0.04828707       0.03091248       0.00000000       0.00677646
2
Lattice="20.0 0.0 0.0 0.0 20.0 0.0 0.0 0.0 20.0" Properties=species:S:1:pos:R:3:quaternions:R:4:c_diameter\[1\]:R:1:c_diameter\[2\]:R:1:c_diameter\[3\]:R:1:forces:R:3:torques:R:3 energy=-0.030964126929651014 pbc="F F F"
X       10.00000000      10.00000000      10.00000000       0.68078918       0.43550819       0.52257504      -0.27161376       1.00000000       2.00000000       1.00000000       0.03773467       0.03534145       0.04245580      -0.00410203      -0.00000000      -0.02763169
X       11.14087831      11.18174818      11.97304928      -0.56427924      -0.16923556       0.66468800       0.45949769       1.00000000       2.00000000       1.00000000      -0.03773467      -0.03534145      -0.04245580      -0.01005642      -0.00000000      -0.01399654
2
Lattice="20.0 0.0 0.0 0.0 20.0 0.0 0.0 0.0 20.0" Properties=species:S:1:pos:R:3:quaternions:R:4:c_diameter\[1\]:R:1:c_diameter\[2\]:R:1:c_diameter\[3\]:R:1:forces:R:3:torques:R:3 energy=-0.027941177047768873 pbc="F F F"
X       10.00000000      10.00000000      10.00000000      -0.27422478       0.64035775       0.56879174       0.43728559       1.00000000       2.00000000       1.00000000       0.03532989       0.03337109       0.02701076      -0.01346133      -0.00000000       0.02737719
X       11.97375600      11.47506675      11.50347519      -0.26586488       0.20292810       0.26020231       0.90577636       1.00000000       2.00000000       1.00000000      -0.03532989      -0.03337109      -0.02701076       0.01710193      -0.00000000      -0.00174798
2
Lattice="20.0 0.0 0.0 0.0 20.0 0.0 0.0 0.0 20.0" Properties=species:S:1:pos:R:3:quaternions:R:4:c_diameter\[1\]:R:1:c_diameter\[2\]:R:1:c_diameter\[3\]:R:1:forces:R:3:torques:R:3 energy=-0.1002038599972448 pbc="F F F"
X       10.00000000      10.00000000      10.00000000      -0.42072672       0.45287772      -0.55237983       0.55925604       1.00000000       2.00000000       1.00000000       0.11256284       0.20285811       0.18346120      -0.09329727      -0.00000000      -0.13219266
X       11.47635842      11.18126105      11.45955795      -0.17459316       0.79296512       0.39648851       0.42839282       1.00000000       2.00000000       1.00000000      -0.11256284      -0.20285811      -0.18346120      -0.04479723      -0.00000000       0.09505426
2
Lattice="20.0 0.0 0.0 0.0 20.0 0.0 0.0 0.0 20.0" Properties=species:S:1:pos:R:3:quaternions:R:4:c_diameter\[1\]:R:1:c_diameter\[2\]:R:1:c_diameter\[3\]:R:1:forces:R:3:torques:R:3 energy=-0.8511873559947355 pbc="F F F"
X       10.00000000      10.00000000      10.00000000       0.71746783      -0.45896690      -0.42922441      -0.30059225       1.00000000       2.00000000       1.00000000       3.30892262       1.92692650       1.37167566      -1.16412961      -0.00000000       1.35294170
X       11.35854448      11.19923683      11.29547086      -0.13604487       0.24891508      -0.43767846       0.85321196       1.00000000       2.00000000       1.00000000      -3.30892262      -1.92692650      -1.37167566       0.19517477       0.00000000       1.09167126
2
Lattice="20.0 0.0 0.0 0.0 20.0 0.0 0.0 0.0 20.0" Properties=species:S:1:pos:R:3:quaternions:R:4:c_diameter\[1\]:R:1:c_diameter\[2\]:R:1:c_diameter\[3\]:R:1:forces:R:3:torques:R:3 energy=-0.1427047936121856 pbc="F F F"
X       10.00000000      10.00000000      10.00000000      -0.02843088      -0.45010592      -0.01029017       0.89246314       1.00000000       2.00000000       1.00000000       0.27450683       0.32147868       0.23579840      -0.05945563       0.00000000       0.22822627
X       11.21846034      11.63402725      11.21778204       0.78594066       0.41662640       0.13850262      -0.43535820       1.00000000       2.00000000       1.00000000      -0.27450683      -0.32147868      -0.23579840       0.07099662       0.00000000      -0.19261178
2
Lattice="20.0 0.0 0.0 0.0 20.0 0.0 0.0 0.0 20.0" Properties=species:S:1:pos:R:3:quaternions:R:4:c_diameter\[1\]:R:1:c_diameter\[2\]:R:1:c_diameter\[3\]:R:1:forces:R:3:torques:R:3 energy=-0.05367037266411225 pbc="F F F"
X       10.00000000      10.00000000      10.00000000      -0.03868105      -0.37905371      -0.00926329       0.92451947       1.00000000       2.00000000       1.00000000       0.08557729       0.06018917       0.08580135      -0.00662034      -0.00000000       0.07593995
X       11.68475324      11.53028070      11.14536021      -0.34389025       0.42120464       0.62737188      -0.55743221       1.00000000       2.00000000       1.00000000      -0.08557729      -0.06018917      -0.08580135       0.03850539      -0.00000000      -0.04110980
2
Lattice="20.0 0.0 0.0 0.0 20.0 0.0 0.0 0.0 20.0" Properties=species:S:1:pos:R:3:quaternions:R:4:c_diameter\[1\]:R:1:c_diameter\[2\]:R:1:c_diameter\[3\]:R:1:forces:R:3:torques:R:3 energy=-0.10435341161480939 pbc="F F F"
X       10.00000000      10.00000000      10.00000000      -0.13904773       0.92431168       0.13721000      -0.32785220       1.00000000       2.00000000       1.00000000       0.17435739       0.23580033       0.11273200      -0.11669146      -0.00000000      -0.04465077
X       11.30640898      11.86267285      11.10064663      -0.38614328       0.57862833       0.69722672       0.17308240       1.00000000       2.00000000       1.00000000      -0.17435739      -0.23580033      -0.11273200      -0.01091616      -0.00000000       0.14762882
2
Lattice="20.0 0.0 0.0 0.0 20.0 0.0 0.0 0.0 20.0" Properties=species:S:1:pos:R:3:quaternions:R:4:c_diameter\[1\]:R:1:c_diameter\[2\]:R:1:c_diameter\[3\]:R:1:forces:R:3:torques:R:3 energy=-0.07206500216736898 pbc="F F F"
X       10.00000000      10.00000000      10.00000000       0.72568386       0.10362923      -0.67593122      -0.07590070       1.00000000       2.00000000       1.00000000       0.10998335       0.08320306       0.11531880      -0.09359721      -0.00000000      -0.02229104
X       11.38992723      11.86393756      11.10816536       0.93556758       0.20532169       0.24243321       0.15421557       1.00000000       2.00000000       1.00000000      -0.10998335      -0.08320306      -0.11531880      -0.08702717      -0.00000000       0.05372492
2
Lattice="20.0 0.0 0.0 0.0 20.0 0.0 0.0 0.0 20.0" Properties=species:S:1:pos:R:3:quaternions:R:4:c_diameter\[1\]:R:1:c_diameter\[2\]:R:1:c_diameter\[3\]:R:1:forces:R:3:torques:R:3 energy=-0.02429687726748385 pbc="F F F"
X       10.00000000      10.00000000      10.00000000       0.52674769       0.09823486       0.83764355       0.10601921       1.00000000       2.00000000       1.00000000       0.02589116       0.02011067       0.03251203       0.02581479      -0.00000000       0.01373079
X       11.56147189      11.79614410      11.68682165       0.59072597       0.66626245       0.32751047       0.31602859       1.00000000       2.00000000       1.00000000      -0.02589116      -0.02011067      -0.03251203      -0.00276121      -0.00000000       0.00202331
2
Lattice="20.0 0.0 0.0 0.0 20.0 0.0 0.0 0.0 20.0" Properties=species:S:1:pos:R:3:quaternions:R:4:c_diameter\[1\]:R:1:c_diameter\[2\]:R:1:c_diameter\[3\]:R:1:forces:R:3:torques:R:3 energy=-0.04067287664052196 pbc="F F F"
X       10.00000000      10.00000000      10.00000000      -0.01239786       0.14895408       0.98832837       0.02942794       1.00000000       2.00000000       1.00000000       0.05344775       0.03887680       0.06443174       0.04098689       0.00000000      -0.03128907
X       11.31217964      11.40740570      11.95352054      -0.45206089       0.55583963       0.36953696       0.59171419       1.00000000       2.00000000       1.00000000      -0.05344775      -0.03887680      -0.06443174      -0.03000451      -0.00000000       0.02654512
2
Lattice="20.0 0.0 0.0 0.0 20.0 0.0 0.0 0.0 20.0" Properties=species:S:1:pos:R:3:quaternions:R:4:c_diameter\[1\]:R:1:c_diameter\[2\]:R:1:c_diameter\[3\]:R:1:forces:R:3:torques:R:3 energy=-0.01877415667656179 pbc="F F F"
X       10.00000000      10.00000000      10.00000000       0.41827108       0.09578896      -0.35729036       0.82958868       1.00000000       2.00000000       1.00000000       0.01641275       0.01743742       0.02343670       0.00789506       0.00000000       0.01498020
X       11.02206025      11.86504197      11.97985509      -0.24555063       0.52541189       0.11191191       0.80692190       1.00000000       2.00000000       1.00000000      -0.01641275      -0.01743742      -0.02343670       0.00867674      -0.00000000      -0.00907196
2
Lattice="20.0 0.0 0.0 0.0 20.0 0.0 0.0 0.0 20.0" Properties=species:S:1:pos:R:3:quaternions:R:4:c_diameter\[1\]:R:1:c_diameter\[2\]:R:1:c_diameter\[3\]:R:1:forces:R:3:torques:R:3 energy=-0.021341627611760935 pbc="F F F"
X       10.00000000      10.00000000      10.00000000       0.92194113      -0.06527536       0.38061874       0.02988400       1.00000000       2.00000000       1.00000000       0.02934339       0.01413243       0.02282465       0.00248613      -0.00000000       0.02258782
X       11.91167637      11.51355675      11.45637265       0.09225782      -0.54361569       0.72177209       0.41834857       1.00000000       2.00000000       1.00000000      -0.02934339      -0.01413243      -0.02282465      -0.00291198      -0.00000000       0.00168027
2
Lattice="20.0 0.0 0.0 0.0 20.0 0.0 0.0 0.0 20.0" Properties=species:S:1:pos:R:3:quaternions:R:4:c_diameter\[1\]:R:1:c_diameter\[2\]:R:1:c_diameter\[3\]:R:1:forces:R:3:torques:R:3 energy=-0.014315348653415607 pbc="F F F"
X       10.00000000      10.00000000      10.00000000       0.64313033       0.30086357       0.64220639      -0.28885195       1.00000000       2.00000000       1.00000000       0.01080198       0.01632871       0.01370577      -0.00111552      -0.00000000       0.00082322
X       11.37321824      11.90771479      11.61943243      -0.16974907      -0.49614082       0.84222393       0.12525332       1.00000000       2.00000000       1.00000000      -0.01080198      -0.01632871      -0.01370577      -0.00176523      -0.00000000       0.00199024
2
Lattice="20.0 0.0 0.0 0.0 20.0 0.0 0.0 0.0 20.0" Properties=species:S:1:pos:R:3:quaternions:R:4:c_diameter\[1\]:R:1:c_diameter\[2\]:R:1:c_diameter\[3\]:R:1:forces:R:3:torques:R:3 energy=-0.06367958656645836 pbc="F F F"
X       10.00000000      10.00000000      10.00000000      -0.24069266       0.17657762       0.43740124       0.84827327       1.00000000       2.00000000       1.00000000       0.07458131       0.10267144       0.11373065      -0.01667770      -0.00000000       0.00270919
X       11.03075882      11.40866832      11.43366131      -0.19642324      -0.08641070       0.38323858       0.89837592       1.00000000       2.00000000       1.00000000      -0.07458131      -0.10267144      -0.11373065       0.03085651       0.00000000       0.01227759
2
Lattice="20.0 0.0 0.0 0.0 20.0 0.0 0.0 0.0 20.0" Properties=species:S:1:pos:R:3:quaternions:R:4:c_diameter\[1\]:R:1:c_diameter\[2\]:R:1:c_diameter\[3\]:R:1:forces:R:3:torques:R:3 energy=-0.2046318007740689 pbc="F F F"
X       10.00000000      10.00000000      10.00000000       0.37980131       0.87244307      -0.26184262       0.16134589       1.00000000       2.00000000       1.00000000       0.36364409       0.40973810       0.11433268       0.26589843       0.00000000      -0.04188586
X       11.48715749      11.99474566      11.38327434       0.45231528      -0.01646172       0.78174100       0.42897659       1.00000000       2.00000000       1.00000000      -0.36364409      -0.40973810      -0.11433268       0.02386233       0.00000000      -0.20841011
2
Lattice="20.0 0.0 0.0 0.0 20.0 0.0 0.0 0.0 20.0" Properties=species:S:1:pos:R:3:quaternions:R:4:c_diameter\[1\]:R:1:c_diameter\[2\]:R:1:c_diameter\[3\]:R:1:forces:R:3:torques:R:3 energy=-0.030635898344972132 pbc="F F F"
X       10.00000000      10.00000000      10.00000000      -0.34608150      -0.07725488       0.45875435       0.81474151       1.00000000       2.00000000       1.00000000       0.03181431       0.02725618       0.04195411       0.01047886      -0.00000000       0.00396064
X       11.74792741      11.67041070      11.91987897      -0.40461120      -0.40866834      -0.08672819       0.81348521       1.00000000       2.00000000       1.00000000      -0.03181431      -0.02725618      -0.04195411       0.00175211      -0.00000000       0.01326849
2
Lattice="20.0 0.0 0.0 0.0 20.0 0.0 0.0 0.0 20.0" Properties=species:S:1:pos:R:3:quaternions:R:4:c_diameter\[1\]:R:1:c_diameter\[2\]:R:1:c_diameter\[3\]:R:1:forces:R:3:torques:R:3 energy=-0.019792405386114913 pbc="F F F"
X       10.00000000      10.00000000      10.00000000      -0.65430496       0.02150608       0.70737366      -0.26654270       1.00000000       2.00000000       1.00000000       0.01955686       0.01664328       0.02531487      -0.00808450       0.00000000      -0.01675353
X       11.84036624      11.51617309      11.56504350       0.63759440      -0.41143029       0.55390888      -0.34261269       1.00000000       2.00000000       1.00000000      -0.01955686      -0.01664328      -0.02531487      -0.00836839      -0.00000000      -0.00717308
2
Lattice="20.0 0.0 0.0 0.0 20.0 0.0 0.0 0.0 20.0" Properties=species:S:1:pos:R:3:quaternions:R:4:c_diameter\[1\]:R:1:c_diameter\[2\]:R:1:c_diameter\[3\]:R:1:forces:R:3:torques:R:3 energy=-0.02630505364047393 pbc="F F F"
X       10.00000000      10.00000000      10.00000000       0.85219028       0.34288271       0.35549098       0.17271172       1.00000000       2.00000000       1.00000000       0.02904873       0.02127747       0.03474117      -0.00274641       0.00000000       0.02632921
X       11.90086372      11.59430467      11.33354279       0.56681234       0.60677343       0.54634255      -0.10981619       1.00000000       2.00000000       1.00000000      -0.02904873      -0.02127747      -0.03474117      -0.00069428      -0.00000000       0.01597338
2
Lattice="20.0 0.0 0.0 0.0 20.0 0.0 0.0 0.0 20.0" Properties=species:S:1:pos:R:3:quaternions:R:4:c_diameter\[1\]:R:1:c_diameter\[2\]:R:1:c_diameter\[3\]:R:1:forces:R:3:torques:R:3 energy=-0.08547795815550334 pbc="F F F"
X       10.00000000      10.00000000      10.00000000       0.03310710       0.34753584       0.31691191       0.88186711       1.00000000       2.00000000       1.00000000       0.16378776       0.15761594       0.14297988      -0.01153620      -0.00000000       0.01301866
X       11.11659460      11.17643258      11.35670665       0.53408509       0.25327426      -0.45774195       0.66413671       1.00000000       2.00000000       1.00000000      -0.16378776      -0.15761594      -0.14297988       0.05308310       0.00000000       0.05498877
2
Lattice="20.0 0.0 0.0 0.0 20.0 0.0 0.0 0.0 20.0" Properties=species:S:1:pos:R:3:quaternions:R:4:c_diameter\[1\]:R:1:c_diameter\[2\]:R:1:c_diameter\[3\]:R:1:forces:R:3:torques:R:3 energy=-0.05731328626881192 pbc="F F F"
X       10.00000000      10.00000000      10.00000000       0.77744186      -0.55610806       0.23631676       0.17459201       1.00000000       2.00000000       1.00000000       0.09845131       0.09851648       0.05010542       0.07524211       0.00000000       0.01796632
X       11.81507316      11.41534297      11.12342271      -0.19395932      -0.57052025       0.72097651       0.34216853       1.00000000       2.00000000       1.00000000      -0.09845131      -0.09851648      -0.05010542       0.01759658      -0.00000000       0.06613941
2
Lattice="20.0 0.0 0.0 0.0 20.0 0.0 0.0 0.0 20.0" Properties=species:S:1:pos:R:3:quaternions:R:4:c_diameter\[1\]:R:1:c_diameter\[2\]:R:1:c_diameter\[3\]:R:1:forces:R:3:torques:R:3 energy=-0.14724385460044057 pbc="F F F"
X       10.00000000      10.00000000      10.00000000       0.26537483       0.68117033       0.29596706       0.61480621       1.00000000       2.00000000       1.00000000       0.24648863       0.37527425       0.21853044      -0.02746131      -0.00000000       0.03108917
X       11.48920917      11.28539696      11.04070615      -0.47252801       0.68612189       0.45353146      -0.31664373       1.00000000       2.00000000       1.00000000      -0.24648863      -0.37527425      -0.21853044       0.23382099       0.00000000       0.02787169
2
Lattice="20.0 0.0 0.0 0.0 20.0 0.0 0.0 0.0 20.0" Properties=species:S:1:pos:R:3:quaternions:R:4:c_diameter\[1\]:R:1:c_diameter\[2\]:R:1:c_diameter\[3\]:R:1:forces:R:3:torques:R:3 energy=-0.1885905135038176 pbc="F F F"
X       10.00000000      10.00000000      10.00000000       0.38686329       0.89811972       0.20838584      -0.01712041       1.00000000       2.00000000       1.00000000       0.51921761       0.35267721       0.25145326      -0.00791996      -0.00000000      -0.19415064
X       11.84790582      11.11107245      11.03387341      -0.32729961       0.50207909      -0.54044428       0.59051802       1.00000000       2.00000000       1.00000000      -0.51921761      -0.35267721      -0.25145326      -0.21583263      -0.00000000      -0.02847798
2
Lattice="20.0 0.0 0.0 0.0 20.0 0.0 0.0 0.0 20.0" Properties=species:S:1:pos:R:3:quaternions:R:4:c_diameter\[1\]:R:1:c_diameter\[2\]:R:1:c_diameter\[3\]:R:1:forces:R:3:torques:R:3 energy=-0.1253215303503159 pbc="F F F"
X       10.00000000      10.00000000      10.00000000       0.74519824       0.44390849       0.35560833       0.34809129       1.00000000       2.00000000       1.00000000       0.16317192       0.24301016       0.27245251      -0.09746741       0.00000000       0.15051449
X       11.38969639      11.36928300      11.02532297       0.12870952       0.70546155       0.65925827      -0.22613358       1.00000000       2.00000000       1.00000000      -0.16317192      -0.24301016      -0.27245251       0.06451657      -0.00000000       0.08721516
2
Lattice="20.0 0.0 0.0 0.0 20.0 0.0 0.0 0.0 20.0" Properties=species:S:1:pos:R:3:quaternions:R:4:c_diameter\[1\]:R:1:c_diameter\[2\]:R:1:c_diameter\[3\]:R:1:forces:R:3:torques:R:3 energy=-0.01808375431041916 pbc="F F F"
X       10.00000000      10.00000000      10.00000000       0.55538753       0.24072571      -0.50665718       0.61391720       1.00000000       2.00000000       1.00000000       0.02034224       0.02124097       0.00728745       0.00460380       0.00000000       0.00788780
X       11.68803628      11.96503016      11.41359186       0.68820120      -0.61631759      -0.19590539      -0.32886595       1.00000000       2.00000000       1.00000000      -0.02034224      -0.02124097      -0.00728745       0.00100202      -0.00000000       0.01389406
2
Lattice="20.0 0.0 0.0 0.0 20.0 0.0 0.0 0.0 20.0" Properties=species:S:1:pos:R:3:quaternions:R:4:c_diameter\[1\]:R:1:c_diameter\[2\]:R:1:c_diameter\[3\]:R:1:forces:R:3:torques:R:3 energy=-0.1310720356509946 pbc="F F F"
X       10.00000000      10.00000000      10.00000000      -0.12230879       0.13469065      -0.37315754       0.90975405       1.00000000       2.00000000       1.00000000       0.23325534       0.20573930       0.26524108       0.09425650      -0.00000000       0.09523842
X       11.20102818      11.23666689      11.87939018       0.60211267       0.27393885       0.63680747      -0.39609858       1.00000000       2.00000000       1.00000000      -0.23325534      -0.20573930      -0.26524108      -0.09909193      -0.00000000      -0.12335559
2
Lattice="20.0 0.0 0.0 0.0 20.0 0.0 0.0 0.0 20.0" Properties=species:S:1:pos:R:3:quaternions:R:4:c_diameter\[1\]:R:1:c_diameter\[2\]:R:1:c_diameter\[3\]:R:1:forces:R:3:torques:R:3 energy=-0.044919074345885456 pbc="F F F"
X       10.00000000      10.00000000      10.00000000       0.86074089       0.05362144      -0.11667264       0.49258233       1.00000000       2.00000000       1.00000000       0.03193966       0.05746893       0.06266102      -0.05957573       0.00000000      -0.00374635
X       11.85634105      11.70377678      11.44867989       0.42073947       0.52602543       0.55012031       0.49360226       1.00000000       2.00000000       1.00000000      -0.03193966      -0.05746893      -0.06266102      -0.05379251      -0.00000000       0.02765805
2
Lattice="20.0 0.0 0.0 0.0 20.0 0.0 0.0 0.0 20.0" Properties=species:S:1:pos:R:3:quaternions:R:4:c_diameter\[1\]:R:1:c_diameter\[2\]:R:1:c_diameter\[3\]:R:1:forces:R:3:torques:R:3 energy=-0.04999053494295614 pbc="F F F"
X       10.00000000      10.00000000      10.00000000       0.36975459       0.34441804       0.81776653       0.27552797       1.00000000       2.00000000       1.00000000       0.02923434       0.06714271       0.07359498       0.03368325       0.00000000       0.06242203
X       11.63104708      11.65006344      11.98571362       0.66431569      -0.54580342      -0.01179922       0.51053312       1.00000000       2.00000000       1.00000000      -0.02923434      -0.06714271      -0.07359498       0.05218114      -0.00000000      -0.05429134
2
Lattice="20.0 0.0 0.0 0.0 20.0 0.0 0.0 0.0 20.0" Properties=species:S:1:pos:R:3:quaternions:R:4:c_diameter\[1\]:R:1:c_diameter\[2\]:R:1:c_diameter\[3\]:R:1:forces:R:3:torques:R:3 energy=-0.032479629750790676 pbc="F F F"
X       10.00000000      10.00000000      10.00000000       0.85163883      -0.43428153       0.20565642      -0.20932343       1.00000000       2.00000000       1.00000000       0.04605262       0.04547049       0.02611291       0.01033155      -0.00000000       0.00501859
X       11.94419779      11.37450788      11.10862713      -0.05579802      -0.52850672       0.84523729      -0.05604603       1.00000000       2.00000000       1.00000000      -0.04605262      -0.04547049      -0.02611291      -0.00360268       0.00000000       0.03400547
2
Lattice="20.0 0.0 0.0 0.0 20.0 0.0 0.0 0.0 20.0" Properties=species:S:1:pos:R:3:quaternions:R:4:c_diameter\[1\]:R:1:c_diameter\[2\]:R:1:c_diameter\[3\]:R:1:forces:R:3:torques:R:3 energy=-0.06055146849956206 pbc="F F F"
X       10.00000000      10.00000000      10.00000000       0.79965116       0.16392129      -0.06973100       0.57343302       1.00000000       2.00000000       1.00000000       0.07630997       0.06433721       0.10854635      -0.06827672      -0.00000000      -0.01307583
X       11.86088435      11.16734676      11.25468226      -0.28733407       0.27053744       0.68908622      -0.60779010       1.00000000       2.00000000       1.00000000      -0.07630997      -0.06433721      -0.10854635       0.02343128       0.00000000      -0.04413518
2
Lattice="20.0 0.0 0.0 0.0 20.0 0.0 0.0 0.0 20.0" Properties=species:S:1:pos:R:3:quaternions:R:4:c_diameter\[1\]:R:1:c_diameter\[2\]:R:1:c_diameter\[3\]:R:1:forces:R:3:torques:R:3 energy=-0.03601128696957319 pbc="F F F"
X       10.00000000      10.00000000      10.00000000       0.86432856      -0.41735549      -0.27128649      -0.07179261       1.00000000       2.00000000       1.00000000       0.05211116       0.03093455       0.02623635      -0.01715029      -0.00000000       0.01715947
X       11.73966001      11.76818901      11.88156124       0.11049525      -0.30511651       0.81520173       0.47972998       1.00000000       2.00000000       1.00000000      -0.05211116      -0.03093455      -0.02623635       0.00438149       0.00000000      -0.04441398
2
Lattice="20.0 0.0 0.0 0.0 20.0 0.0 0.0 0.0 20.0" Properties=species:S:1:pos:R:3:quaternions:R:4:c_diameter\[1\]:R:1:c_diameter\[2\]:R:1:c_diameter\[3\]:R:1:forces:R:3:torques:R:3 energy=-0.042827160333554305 pbc="F F F"
X       10.00000000      10.00000000      10.00000000      -0.30843895      -0.34310026       0.58866243       0.66379527       1.00000000       2.00000000       1.00000000       0.03616431       0.08157229       0.05605194       0.00749805       0.00000000       0.00711757
X       11.05606573      11.60131066      11.42058327      -0.53362075       0.60163113      -0.07367146      -0.58979775       1.00000000       2.00000000       1.00000000      -0.03616431      -0.08157229      -0.05605194       0.02289560       0.00000000      -0.03103660
2
Lattice="20.0 0.0 0.0 0.0 20.0 0.0 0.0 0.0 20.0" Properties=species:S:1:pos:R:3:quaternions:R:4:c_diameter\[1\]:R:1:c_diameter\[2\]:R:1:c_diameter\[3\]:R:1:forces:R:3:torques:R:3 energy=-0.033881424451144455 pbc="F F F"
X       10.00000000      10.00000000      10.00000000      -0.16114015      -0.24989630       0.95261702      -0.06408193       1.00000000       2.00000000       1.00000000       0.05291162       0.03925187       0.03875331       0.00665940       0.00000000      -0.00689473
X       11.42491312      11.37841610      11.48790531       0.62159271       0.72162747       0.07746003       0.29474774       1.00000000       2.00000000       1.00000000      -0.05291162      -0.03925187      -0.03875331       0.02215551       0.00000000      -0.01578294
2
Lattice="20.0 0.0 0.0 0.0 20.0 0.0 0.0 0.0 20.0" Properties=species:S:1:pos:R:3:quaternions:R:4:c_diameter\[1\]:R:1:c_diameter\[2\]:R:1:c_diameter\[3\]:R:1:forces:R:3:torques:R:3 energy=-0.12237247091422868 pbc="F F F"
X       10.00000000      10.00000000      10.00000000       0.22517297       0.86563400       0.38616722       0.22549900       1.00000000       2.00000000       1.00000000       0.16179710       0.24074478       0.27228601      -0.02698600      -0.00000000      -0.01949180
X       11.31873803      11.39280910      11.31915098       0.21726736       0.78400744      -0.55085986      -0.18622739       1.00000000       2.00000000       1.00000000      -0.16179710      -0.24074478      -0.27228601      -0.09614030      -0.00000000       0.17236619
2
Lattice="20.0 0.0 0.0 0.0 20.0 0.0 0.0 0.0 20.0" Properties=species:S:1:pos:R:3:quaternions:R:4:c_diameter\[1\]:R:1:c_diameter\[2\]:R:1:c_diameter\[3\]:R:1:forces:R:3:torques:R:3 energy=-1.197862005159276 pbc="F F F"
X       10.00000000      10.00000000      10.00000000       0.41079771      -0.04823937       0.71338520       0.56568521       1.00000000       2.00000000       1.00000000       2.52106298       4.06563800       4.60977995      -1.11232200      -0.00000000      -1.27626175
X       11.01195356      11.10682491      11.37621347      -0.50062314       0.05523805       0.15757093       0.84940958       1.00000000       2.00000000       1.00000000      -2.52106298      -4.06563800      -4.60977995       2.00245441       0.00000000      -0.62649189
2
Lattice="20.0 0.0 0.0 0.0 20.0 0.0 0.0 0.0 20.0" Properties=species:S:1:pos:R:3:quaternions:R:4:c_diameter\[1\]:R:1:c_diameter\[2\]:R:1:c_diameter\[3\]:R:1:forces:R:3:torques:R:3 energy=-0.055969137521705084 pbc="F F F"
X       10.00000000      10.00000000      10.00000000       0.76806730       0.36467733      -0.50249933      -0.15677209       1.00000000       2.00000000       1.00000000       0.08618769       0.10562362       0.06864717       0.01062767       0.00000000       0.00283054
X       11.12714634      11.49070830      11.25819126      -0.03869487      -0.29930229       0.74696936       0.59241676       1.00000000       2.00000000       1.00000000      -0.08618769      -0.10562362      -0.06864717      -0.01433212       0.00000000      -0.04166645
2
Lattice="20.0 0.0 0.0 0.0 20.0 0.0 0.0 0.0 20.0" Properties=species:S:1:pos:R:3:quaternions:R:4:c_diameter\[1\]:R:1:c_diameter\[2\]:R:1:c_diameter\[3\]:R:1:forces:R:3:torques:R:3 energy=-0.34564768662111756 pbc="F F F"
X       10.00000000      10.00000000      10.00000000      -0.11328172       0.16408320       0.96859331       0.14856294       1.00000000       2.00000000       1.00000000       1.07114433       0.20843718       0.87533573       0.25985092      -0.00000000      -0.53100207
X       11.40999049      11.00713296      11.24402813       0.85697508      -0.01044403      -0.50993402      -0.07383716       1.00000000       2.00000000       1.00000000      -1.07114433      -0.20843718      -0.87533573      -0.41323450      -0.00000000      -0.04607015
2
Lattice="20.0 0.0 0.0 0.0 20.0 0.0 0.0 0.0 20.0" Properties=species:S:1:pos:R:3:quaternions:R:4:c_diameter\[1\]:R:1:c_diameter\[2\]:R:1:c_diameter\[3\]:R:1:forces:R:3:torques:R:3 energy=-0.08367533730342172 pbc="F F F"
X       10.00000000      10.00000000      10.00000000       0.33511429       0.22842195       0.90268797      -0.14379243       1.00000000       2.00000000       1.00000000       0.14440545       0.03693987       0.18464041       0.04817775      -0.00000000       0.03830198
X       11.25521655      11.01127465      11.76614762      -0.04432677      -0.08690649      -0.21118220       0.97256593       1.00000000       2.00000000       1.00000000      -0.14440545      -0.03693987      -0.18464041       0.04124453      -0.00000000       0.12070628
2
Lattice="20.0 0.0 0.0 0.0 20.0 0.0 0.0 0.0 20.0" Properties=species:S:1:pos:R:3:quaternions:R:4:c_diameter\[1\]:R:1:c_diameter\[2\]:R:1:c_diameter\[3\]:R:1:forces:R:3:torques:R:3 energy=-0.0381891841106363 pbc="F F F"
X       10.00000000      10.00000000      10.00000000      -0.07504607       0.81376137       0.22164591       0.53200903       1.00000000       2.00000000       1.00000000       0.06158604       0.04177298       0.04101547      -0.00474868       0.00000000      -0.00055726
X       11.83846445      11.07117564      11.21243314       0.26221724      -0.17866340       0.07364575       0.94546169       1.00000000       2.00000000       1.00000000      -0.06158604      -0.04177298      -0.04101547      -0.00630141       0.00000000      -0.00967287
2
Lattice="20.0 0.0 0.0 0.0 20.0 0.0 0.0 0.0 20.0" Properties=species:S:1:pos:R:3:quaternions:R:4:c_diameter\[1\]:R:1:c_diameter\[2\]:R:1:c_diameter\[3\]:R:1:forces:R:3:torques:R:3 energy=-0.02091424407050366 pbc="F F F"
X       10.00000000      10.00000000      10.00000000       0.88025203       0.29232200      -0.01761093       0.37335514       1.00000000       2.00000000       1.00000000       0.01366033       0.01691507       0.02924103      -0.01621175      -0.00000000       0.01142785
X       11.77927934      11.52915414      11.75214513       0.72215746       0.30237221       0.08514269       0.61628757       1.00000000       2.00000000       1.00000000      -0.01366033      -0.01691507      -0.02924103      -0.01878396      -0.00000000      -0.00787019
2
Lattice="20.0 0.0 0.0 0.0 20.0 0.0 0.0 0.0 20.0" Properties=species:S:1:pos:R:3:quaternions:R:4:c_diameter\[1\]:R:1:c_diameter\[2\]:R:1:c_diameter\[3\]:R:1:forces:R:3:torques:R:3 energy=-0.05219672382036331 pbc="F F F"
X       10.00000000      10.00000000      10.00000000       0.04462223       0.92006728      -0.23932789      -0.30693195       1.00000000       2.00000000       1.00000000       0.06456294       0.03688256       0.11240579      -0.06410179      -0.00000000       0.02191839
X       11.17808227      11.11546258      11.78401871      -0.24342619      -0.37568457       0.81590873       0.36592040       1.00000000       2.00000000       1.00000000      -0.06456294      -0.03688256      -0.11240579       0.00200823      -0.00000000      -0.01707552
2
Lattice="20.0 0.0 0.0 0.0 20.0 0.0 0.0 0.0 20.0" Properties=species:S:1:pos:R:3:quaternions:R:4:c_diameter\[1\]:R:1:c_diameter\[2\]:R:1:c_diameter\[3\]:R:1:forces:R:3:torques:R:3 energy=-0.04639339124994308 pbc="F F F"
X       10.00000000      10.00000000      10.00000000      -0.23466578      -0.07751601       0.42128661       0.87260577       1.00000000       2.00000000       1.00000000       0.05649527       0.06952327       0.06544233       0.00683400       0.00000000      -0.00118304
X       11.16907859      11.36656942      11.58258236       0.30954284       0.29859254       0.78941334      -0.43800948       1.00000000       2.00000000       1.00000000      -0.05649527      -0.06952327      -0.06544233      -0.02764542      -0.00000000      -0.01207801
2
Lattice="20.0 0.0 0.0 0.0 20.0 0.0 0.0 0.0 20.0" Properties=species:S:1:pos:R:3:quaternions:R:4:c_diameter\[1\]:R:1:c_diameter\[2\]:R:1:c_diameter\[3\]:R:1:forces:R:3:torques:R:3 energy=-0.025670166528796244 pbc="F F F"
X       10.00000000      10.00000000      10.00000000      -0.45909827      -0.21806470       0.71043325       0.48678657       1.00000000       2.00000000       1.00000000       0.02727075       0.02434976       0.03423778      -0.00723288      -0.00000000      -0.00169653
X       11.46053575      11.19654495      11.84452969      -0.42932743      -0.38715356       0.78089451       0.23663019       1.00000000       2.00000000       1.00000000      -0.02727075      -0.02434976      -0.03423778       0.00662808      -0.00000000       0.00702483
2
Lattice="20.0 0.0 0.0 0.0 20.0 0.0 0.0 0.0 20.0" Properties=species:S:1:pos:R:3:quaternions:R:4:c_diameter\[1\]:R:1:c_diameter\[2\]:R:1:c_diameter\[3\]:R:1:forces:R:3:torques:R:3 energy=-0.33174190105023726 pbc="F F F"
X       10.00000000      10.00000000      10.00000000      -0.26728599       0.06861067      -0.61228871       0.74091384       1.00000000       2.00000000       1.00000000       0.81667106       1.03876363       0.67861230      -0.74744936      -0.00000000       0.11958048
X       11.07976459      11.17766604      11.35317614       0.36151998      -0.29214554      -0.18722268       0.86539121       1.00000000       2.00000000       1.00000000      -0.81667106      -1.03876363      -0.67861230      -0.07242447      -0.00000000       0.11353780
2
Lattice="20.0 0.0 0.0 0.0 20.0 0.0 0.0 0.0 20.0" Properties=species:S:1:pos:R:3:quaternions:R:4:c_diameter\[1\]:R:1:c_diameter\[2\]:R:1:c_diameter\[3\]:R:1:forces:R:3:torques:R:3 energy=-0.02253141160437289 pbc="F F F"
X       10.00000000      10.00000000      10.00000000       0.12409172       0.55950193       0.40415479       0.71289392       1.00000000       2.00000000       1.00000000       0.02114795       0.03319070       0.01982819      -0.00250154      -0.00000000       0.00449290
X       11.19037025      11.84933693      11.46347618       0.75129826       0.62675973       0.04209976       0.20236299       1.00000000       2.00000000       1.00000000      -0.02114795      -0.03319070      -0.01982819       0.01026545       0.00000000      -0.00759692
2
Lattice="20.0 0.0 0.0 0.0 20.0 0.0 0.0 0.0 20.0" Properties=species:S:1:pos:R:3:quaternions:R:4:c_diameter\[1\]:R:1:c_diameter\[2\]:R:1:c_diameter\[3\]:R:1:forces:R:3:torques:R:3 energy=-0.012086149560578373 pbc="F F F"
X       10.00000000      10.00000000      10.00000000       0.05915886      -0.54942325       0.82350710      -0.12833696       1.00000000       2.00000000       1.00000000       0.01066577       0.01084041       0.00969223      -0.00455671      -0.00000000       0.00513002
X       11.88689606      11.93440143      11.81721666       0.26283272       0.91775943       0.18938350       0.22971827       1.00000000       2.00000000       1.00000000      -0.01066577      -0.01084041      -0.00969223       0.00149957      -0.00000000      -0.00718426
2
Lattice="20.0 0.0 0.0 0.0 20.0 0.0 0.0 0.0 20.0" Properties=species:S:1:pos:R:3:quaternions:R:4:c_diameter\[1\]:R:1:c_diameter\[2\]:R:1:c_diameter\[3\]:R:1:forces:R:3:torques:R:3 energy=-0.014433433366202664 pbc="F F F"
X       10.00000000      10.00000000      10.00000000       0.24367600      -0.22826585      -0.00079159       0.94261131       1.00000000       2.00000000       1.00000000       0.01474090       0.01442891       0.01150201       0.00192070      -0.00000000       0.00751225
X       11.45096831      11.93795899      11.77571874       0.60338474       0.65933772       0.38800938      -0.22505410       1.00000000       2.00000000       1.00000000      -0.01474090      -0.01442891      -0.01150201      -0.00096457      -0.00000000      -0.01131328
2
Lattice="20.0 0.0 0.0 0.0 20.0 0.0 0.0 0.0 20.0" Properties=species:S:1:pos:R:3:quaternions:R:4:c_diameter\[1\]:R:1:c_diameter\[2\]:R:1:c_diameter\[3\]:R:1:forces:R:3:torques:R:3 energy=-0.02634008160195422 pbc="F F F"
X       10.00000000      10.00000000      10.00000000       0.17885748       0.72776115       0.60968982       0.25817056       1.00000000       2.00000000       1.00000000       0.00986196       0.03467556       0.03322815      -0.01037525       0.00000000       0.02487550
X       11.42931295      11.88306904      11.58927185      -0.59301552       0.22282200       0.03161361       0.77309995       1.00000000       2.00000000       1.00000000      -0.00986196      -0.03467556      -0.03322815       0.02446482       0.00000000      -0.01366971
2
Lattice="20.0 0.0 0.0 0.0 20.0 0.0 0.0 0.0 20.0" Properties=species:S:1:pos:R:3:quaternions:R:4:c_diameter\[1\]:R:1:c_diameter\[2\]:R:1:c_diameter\[3\]:R:1:forces:R:3:torques:R:3 energy=-0.08225849082855896 pbc="F F F"
X       10.00000000      10.00000000      10.00000000      -0.31691333       0.39171068       0.63340638      -0.58730320       1.00000000       2.00000000       1.00000000       0.12683669       0.08584582       0.15476705       0.03717351       0.00000000      -0.05821208
X       11.85089023      11.10212899      11.64659123      -0.50858906      -0.28352967      -0.15625056       0.79783072       1.00000000       2.00000000       1.00000000      -0.12683669      -0.08584582      -0.15476705       0.01592123       0.00000000       0.01393076
2
Lattice="20.0 0.0 0.0 0.0 20.0 0.0 0.0 0.0 20.0" Properties=species:S:1:pos:R:3:quaternions:R:4:c_diameter\[1\]:R:1:c_diameter\[2\]:R:1:c_diameter\[3\]:R:1:forces:R:3:torques:R:3 energy=-0.18061773093631883 pbc="F F F"
X       10.00000000      10.00000000      10.00000000       0.54671250      -0.39528909       0.69330100       0.25334898       1.00000000       2.00000000       1.00000000       0.42673867       0.25018613       0.34094028       0.30008651       0.00000000      -0.11848589
X       11.16035239      11.59594038      11.41837710      -0.11710009       0.11789473       0.98315568       0.07611380       1.00000000       2.00000000       1.00000000      -0.42673867      -0.25018613      -0.34094028       0.22517543       0.00000000      -0.24900059
2
Lattice="20.0 0.0 0.0 0.0 20.0 0.0 0.0 0.0 20.0" Properties=species:S:1:pos:R:3:quaternions:R:4:c_diameter\[1\]:R:1:c_diameter\[2\]:R:1:c_diameter\[3\]:R:1:forces:R:3:torques:R:3 energy=-0.08960070808836666 pbc="F F F"
X       10.00000000      10.00000000      10.00000000       0.75243053      -0.56668204       0.32423223      -0.08713909       1.00000000       2.00000000       1.00000000       0.13140657       0.17454249       0.14308979       0.08667354       0.00000000       0.06397849
X       11.34548885      11.32666679      11.66842846       0.72168001      -0.24499120       0.08138918       0.64228738       1.00000000       2.00000000       1.00000000      -0.13140657      -0.17454249      -0.14308979      -0.01681170      -0.00000000      -0.14253691
2
Lattice="20.0 0.0 0.0 0.0 20.0 0.0 0.0 0.0 20.0" Properties=species:S:1:pos:R:3:quaternions:R:4:c_diameter\[1\]:R:1:c_diameter\[2\]:R:1:c_diameter\[3\]:R:1:forces:R:3:torques:R:3 energy=-0.032586176929399364 pbc="F F F"
X       10.00000000      10.00000000      10.00000000      -0.62139032       0.25520066      -0.19852972       0.71367544       1.00000000       2.00000000       1.00000000       0.03703896       0.04146118       0.03963699       0.00655052      -0.00000000      -0.03958596
X       11.79589146      11.35970378      11.74771692       0.65996213      -0.63669822      -0.21756360      -0.33426253       1.00000000       2.00000000       1.00000000      -0.03703896      -0.04146118      -0.03963699       0.00052101      -0.00000000       0.03311722
2
Lattice="20.0 0.0 0.0 0.0 20.0 0.0 0.0 0.0 20.0" Properties=species:S:1:pos:R:3:quaternions:R:4:c_diameter\[1\]:R:1:c_diameter\[2\]:R:1:c_diameter\[3\]:R:1:forces:R:3:torques:R:3 energy=-0.021157371727215653 pbc="F F F"
X       10.00000000      10.00000000      10.00000000      -0.08483456      -0.09464317      -0.61291822       0.77985706       1.00000000       2.00000000       1.00000000       0.03024524       0.02240558       0.00844399      -0.02027258      -0.00000000       0.00875474
X       11.87705826      11.80614956      11.19585524       0.73942345      -0.28327385       0.59116111      -0.15341913       1.00000000       2.00000000       1.00000000      -0.03024524      -0.02240558      -0.00844399       0.00855752      -0.00000000       0.01020729
2
Lattice="20.0 0.0 0.0 0.0 20.0 0.0 0.0 0.0 20.0" Properties=species:S:1:pos:R:3:quaternions:R:4:c_diameter\[1\]:R:1:c_diameter\[2\]:R:1:c_diameter\[3\]:R:1:forces:R:3:torques:R:3 energy=-0.028735215336649203 pbc="F F F"
X       10.00000000      10.00000000      10.00000000      -0.18733975       0.76766902       0.10713911      -0.60341470       1.00000000       2.00000000       1.00000000       0.03484763       0.01517279       0.04536747      -0.00840654      -0.00000000      -0.00370336
X       11.64313872      11.05820427      11.74230886      -0.24826525       0.15991520       0.93206073      -0.20989114       1.00000000       2.00000000       1.00000000      -0.03484763      -0.01517279      -0.04536747       0.01934699       0.00000000      -0.01700735
2
Lattice="20.0 0.0 0.0 0.0 20.0 0.0 0.0 0.0 20.0" Properties=species:S:1:pos:R:3:quaternions:R:4:c_diameter\[1\]:R:1:c_diameter\[2\]:R:1:c_diameter\[3\]:R:1:forces:R:3:torques:R:3 energy=-0.07629790005452387 pbc="F F F"
X       10.00000000      10.00000000      10.00000000      -0.26030943       0.91614712       0.04326051      -0.30173165       1.00000000       2.00000000       1.00000000       0.17474700       0.11501672       0.06377248      -0.03372804      -0.00000000      -0.01367638
X       11.55569342      11.47546629      11.09421256      -0.21160986       0.18388377       0.83526984       0.47300350       1.00000000       2.00000000       1.00000000      -0.17474700      -0.11501672      -0.06377248      -0.10423180       0.00000000      -0.06783927
2
Lattice="20.0 0.0 0.0 0.0 20.0 0.0 0.0 0.0 20.0" Properties=species:S:1:pos:R:3:quaternions:R:4:c_diameter\[1\]:R:1:c_diameter\[2\]:R:1:c_diameter\[3\]:R:1:forces:R:3:torques:R:3 energy=-0.03566179192875193 pbc="F F F"
X       10.00000000      10.00000000      10.00000000      -0.35124542       0.71689832      -0.37202810      -0.47358056       1.00000000       2.00000000       1.00000000       0.02978270       0.06598354       0.02430795       0.00962842      -0.00000000      -0.00417502
X       11.06026113      11.99501822      11.38254438       0.30606948       0.15738393       0.66589153      -0.66192163       1.00000000       2.00000000       1.00000000      -0.02978270      -0.06598354      -0.02430795      -0.03378377      -0.00000000      -0.01640617
2
Lattice="20.0 0.0 0.0 0.0 20.0 0.0 0.0 0.0 20.0" Properties=species:S:1:pos:R:3:quaternions:R:4:c_diameter\[1\]:R:1:c_diameter\[2\]:R:1:c_diameter\[3\]:R:1:forces:R:3:torques:R:3 energy=-0.1512764109160378 pbc="F F F"
X       10.00000000      10.00000000      10.00000000       0.30256600       0.80519519      -0.39737258      -0.31970231       1.00000000       2.00000000       1.00000000       0.31518136       0.21128957       0.20959926      -0.08514512       0.00000000       0.14825674
X       11.91266328      11.31773568      11.50890438       0.78861825      -0.59229002      -0.16009058       0.04055610       1.00000000       2.00000000       1.00000000      -0.31518136      -0.21128957      -0.20959926       0.07787377      -0.00000000       0.24894611
2
Lattice="20.0 0.0 0.0 0.0 20.0 0.0 0.0 0.0 20.0" Properties=species:S:1:pos:R:3:quaternions:R:4:c_diameter\[1\]:R:1:c_diameter\[2\]:R:1:c_diameter\[3\]:R:1:forces:R:3:torques:R:3 energy=-0.022177555021632427 pbc="F F F"
X       10.00000000      10.00000000      10.00000000       0.60973634       0.34045670      -0.37844698       0.60752671       1.00000000       2.00000000       1.00000000       0.01659372       0.03209875       0.02183211       0.01302291       0.00000000       0.01156327
X       11.07100732      11.74305510      11.85404854      -0.26081226       0.84095624       0.46023624       0.11380763       1.00000000       2.00000000       1.00000000      -0.01659372      -0.03209875      -0.02183211       0.01204412      -0.00000000       0.01172597
2
Lattice="20.0 0.0 0.0 0.0 20.0 0.0 0.0 0.0 20.0" Properties=species:S:1:pos:R:3:quaternions:R:4:c_diameter\[1\]:R:1:c_diameter\[2\]:R:1:c_diameter\[3\]:R:1:forces:R:3:torques:R:3 energy=-0.02303559264261578 pbc="F F F"
X       10.00000000      10.00000000      10.00000000       0.21258841       0.94409420       0.24170853       0.07119898       1.00000000       2.00000000       1.00000000       0.03382920       0.01753399       0.01261557      -0.00461844       0.00000000      -0.02107273
X       11.75351149      11.99609836      11.29521243      -0.00516806       0.69345923       0.38133609      -0.61128584       1.00000000       2.00000000       1.00000000      -0.03382920      -0.01753399      -0.01261557      -0.02149586       0.00000000      -0.00171718
2
Lattice="20.0 0.0 0.0 0.0 20.0 0.0 0.0 0.0 20.0" Properties=species:S:1:pos:R:3:quaternions:R:4:c_diameter\[1\]:R:1:c_diameter\[2\]:R:1:c_diameter\[3\]:R:1:forces:R:3:torques:R:3 energy=-0.06366696226314467 pbc="F F F"
X       10.00000000      10.00000000      10.00000000       0.32078338       0.52198859       0.78911573       0.04384394       1.00000000       2.00000000       1.00000000       0.05570438       0.11224061       0.09609197       0.03964908       0.00000000       0.06327126
X       11.46050415      11.82571965      11.01669345       0.68870392       0.34776931      -0.06455704       0.63291059       1.00000000       2.00000000       1.00000000      -0.05570438      -0.11224061      -0.09609197      -0.03988062      -0.00000000      -0.02691381
2
Lattice="20.0 0.0 0.0 0.0 20.0 0.0 0.0 0.0 20.0" Properties=species:S:1:pos:R:3:quaternions:R:4:c_diameter\[1\]:R:1:c_diameter\[2\]:R:1:c_diameter\[3\]:R:1:forces:R:3:torques:R:3 energy=-0.02197467832054842 pbc="F F F"
X       10.00000000      10.00000000      10.00000000       0.22308438      -0.17986394      -0.43386160       0.85419344       1.00000000       2.00000000       1.00000000       0.02882600       0.02676653       0.01312769      -0.00273354      -0.00000000       0.01253920
X       11.84951732      11.56926377      11.40356294      -0.45100644       0.81830570       0.34466396       0.09041973       1.00000000       2.00000000       1.00000000      -0.02882600      -0.02676653      -0.01312769       0.00981942       0.00000000       0.01915335
2
Lattice="20.0 0.0 0.0 0.0 20.0 0.0 0.0 0.0 20.0" Properties=species:S:1:pos:R:3:quaternions:R:4:c_diameter\[1\]:R:1:c_diameter\[2\]:R:1:c_diameter\[3\]:R:1:forces:R:3:torques:R:3 energy=-0.03444919647905675 pbc="F F F"
X       10.00000000      10.00000000      10.00000000       0.29371041       0.10579094       0.28142763       0.90738138       1.00000000       2.00000000       1.00000000       0.03200519       0.04653144       0.04918497      -0.01872716      -0.00000000      -0.02243713
X       11.62198320      11.22963933      11.59294793      -0.04584046      -0.65604976       0.72497281       0.20472370       1.00000000       2.00000000       1.00000000      -0.03200519      -0.04653144      -0.04918497      -0.02674470       0.00000000       0.02197657
2
Lattice="20.0 0.0 0.0 0.0 20.0 0.0 0.0 0.0 20.0" Properties=species:S:1:pos:R:3:quaternions:R:4:c_diameter\[1\]:R:1:c_diameter\[2\]:R:1:c_diameter\[3\]:R:1:forces:R:3:torques:R:3 energy=-0.21888518208442415 pbc="F F F"
X       10.00000000      10.00000000      10.00000000      -0.58679932       0.46779030       0.60220336       0.27237824       1.00000000       2.00000000       1.00000000       0.34816604       0.54165702       0.30092642      -0.21240800      -0.00000000       0.20076827
X       11.14380209      11.43769396      11.73793451      -0.17944501      -0.42679059       0.74443098      -0.48111515       1.00000000       2.00000000       1.00000000      -0.34816604      -0.54165702      -0.30092642      -0.20055771       0.00000000       0.33039034
2
Lattice="20.0 0.0 0.0 0.0 20.0 0.0 0.0 0.0 20.0" Properties=species:S:1:pos:R:3:quaternions:R:4:c_diameter\[1\]:R:1:c_diameter\[2\]:R:1:c_diameter\[3\]:R:1:forces:R:3:torques:R:3 energy=-0.14066353707313622 pbc="F F F"
X       10.00000000      10.00000000      10.00000000       0.41325798       0.73315179      -0.53995373      -0.01250095       1.00000000       2.00000000       1.00000000       0.09745290       0.32447031       0.32716981       0.07845799       0.00000000       0.24949679
X       11.10502688      11.34743962      11.51946309       0.58821593       0.49665984       0.62325407       0.13742412       1.00000000       2.00000000       1.00000000      -0.09745290      -0.32447031      -0.32716981       0.01614421      -0.00000000       0.15296566
2
Lattice="20.0 0.0 0.0 0.0 20.0 0.0 0.0 0.0 20.0" Properties=species:S:1:pos:R:3:quaternions:R:4:c_diameter\[1\]:R:1:c_diameter\[2\]:R:1:c_diameter\[3\]:R:1:forces:R:3:torques:R:3 energy=-0.049648427614060624 pbc="F F F"
X       10.00000000      10.00000000      10.00000000      -0.20084625       0.78392072      -0.53275744      -0.24758554       1.00000000       2.00000000       1.00000000       0.04745168       0.05852902       0.07671278      -0.03601729       0.00000000       0.04410224
X       11.62546345      11.86346224      11.16686525      -0.08736627       0.89588067      -0.34161081      -0.27030912       1.00000000       2.00000000       1.00000000      -0.04745168      -0.05852902      -0.07671278      -0.05692532      -0.00000000       0.00230628
2
Lattice="20.0 0.0 0.0 0.0 20.0 0.0 0.0 0.0 20.0" Properties=species:S:1:pos:R:3:quaternions:R:4:c_diameter\[1\]:R:1:c_diameter\[2\]:R:1:c_diameter\[3\]:R:1:forces:R:3:torques:R:3 energy=-0.03067883324129941 pbc="F F F"
X       10.00000000      10.00000000      10.00000000       0.54110614      -0.03995998      -0.41416619       0.73080347       1.00000000       2.00000000       1.00000000       0.03306738       0.03946105       0.03594643      -0.00358314      -0.00000000      -0.00768631
X       11.75486353      11.25272525      11.86434199      -0.42564917       0.73853653       0.50066249       0.15074367       1.00000000       2.00000000       1.00000000      -0.03306738      -0.03946105      -0.03594643       0.01306472       0.00000000       0.03695106
2
Lattice="20.0 0.0 0.0 0.0 20.0 0.0 0.0 0.0 20.0" Properties=species:S:1:pos:R:3:quaternions:R:4:c_diameter\[1\]:R:1:c_diameter\[2\]:R:1:c_diameter\[3\]:R:1:forces:R:3:torques:R:3 energy=-0.20775538343389519 pbc="F F F"
X       10.00000000      10.00000000      10.00000000      -0.16093343       0.49206330       0.85501422      -0.03041099       1.00000000       2.00000000       1.00000000       0.24423316       0.24585288       0.55319465       0.39136735      -0.00000000       0.01557741
X       11.30460863      11.47175282      11.74679337       0.90019385      -0.33320848      -0.26062316       0.10343457       1.00000000       2.00000000       1.00000000      -0.24423316      -0.24585288      -0.55319465      -0.25940523      -0.00000000       0.04368276
2
Lattice="20.0 0.0 0.0 0.0 20.0 0.0 0.0 0.0 20.0" Properties=species:S:1:pos:R:3:quaternions:R:4:c_diameter\[1\]:R:1:c_diameter\[2\]:R:1:c_diameter\[3\]:R:1:forces:R:3:torques:R:3 energy=-0.058754759652802635 pbc="F F F"
X       10.00000000      10.00000000      10.00000000      -0.07253338      -0.30475322       0.94799000       0.05638566       1.00000000       2.00000000       1.00000000       0.08321373       0.05002149       0.10770970       0.00552706      -0.00000000      -0.04049012
X       11.35929666      11.52052257      11.62114645       0.07006867       0.98351971      -0.15871922       0.05086808       1.00000000       2.00000000       1.00000000      -0.08321373      -0.05002149      -0.10770970      -0.07431962       0.00000000      -0.02583949
2
Lattice="20.0 0.0 0.0 0.0 20.0 0.0 0.0 0.0 20.0" Properties=species:S:1:pos:R:3:quaternions:R:4:c_diameter\[1\]:R:1:c_diameter\[2\]:R:1:c_diameter\[3\]:R:1:forces:R:3:torques:R:3 energy=-0.0187241497860438 pbc="F F F"
X       10.00000000      10.00000000      10.00000000      -0.62837549       0.39127371       0.01557947       0.67216546       1.00000000       2.00000000       1.00000000       0.02211709       0.01031689       0.02303316       0.00908776      -0.00000000      -0.00537065
X       11.82823500      11.19652307      11.82401149       0.14035760       0.83889442       0.33072593      -0.40887193       1.00000000       2.00000000       1.00000000      -0.02211709      -0.01031689      -0.02303316      -0.01276519      -0.00000000       0.00125708
2
Lattice="20.0 0.0 0.0 0.0 20.0 0.0 0.0 0.0 20.0" Properties=species:S:1:pos:R:3:quaternions:R:4:c_diameter\[1\]:R:1:c_diameter\[2\]:R:1:c_diameter\[3\]:R:1:forces:R:3:torques:R:3 energy=-0.0453568654324944 pbc="F F F"
X       10.00000000      10.00000000      10.00000000       0.57652459       0.60268202      -0.46521198       0.29660006       1.00000000       2.00000000       1.00000000       0.04359850       0.08673427       0.03870059       0.03682319      -0.00000000       0.03489903
X       11.08685650      11.79894109      11.49969435      -0.43758467       0.88448300       0.07492765       0.14351071       1.00000000       2.00000000       1.00000000      -0.04359850      -0.08673427      -0.03870059       0.01174548      -0.00000000       0.00998842
2
Lattice="20.0 0.0 0.0 0.0 20.0 0.0 0.0 0.0 20.0" Properties=species:S:1:pos:R:3:quaternions:R:4:c_diameter\[1\]:R:1:c_diameter\[2\]:R:1:c_diameter\[3\]:R:1:forces:R:3:torques:R:3 energy=-0.02648086231949107 pbc="F F F"
X       10.00000000      10.00000000      10.00000000       0.22031271       0.75472070       0.02310772       0.61751518       1.00000000       2.00000000       1.00000000       0.03742611       0.00910933       0.02974589       0.02579982      -0.00000000      -0.00963186
X       11.80035504      11.44773123      11.70890596       0.81035831       0.01110676       0.58374583      -0.04936453       1.00000000       2.00000000       1.00000000      -0.03742611      -0.00910933      -0.02974589       0.00350398       0.00000000       0.02714906
2
Lattice="20.0 0.0 0.0 0.0 20.0 0.0 0.0 0.0 20.0" Properties=species:S:1:pos:R:3:quaternions:R:4:c_diameter\[1\]:R:1:c_diameter\[2\]:R:1:c_diameter\[3\]:R:1:forces:R:3:torques:R:3 energy=-0.05093078833265925 pbc="F F F"
X       10.00000000      10.00000000      10.00000000      -0.41167262      -0.05697640      -0.29780956       0.85941190       1.00000000       2.00000000       1.00000000       0.08285953       0.05433469       0.06413057      -0.00204709      -0.00000000       0.00409498
X       11.97768425      11.33423266      11.57376678       0.15810700      -0.14147785       0.95717761      -0.19697007       1.00000000       2.00000000       1.00000000      -0.08285953      -0.05433469      -0.06413057      -0.00001013       0.00000000       0.00004543
2
Lattice="20.0 0.0 0.0 0.0 20.0 0.0 0.0 0.0 20.0" Properties=species:S:1:pos:R:3:quaternions:R:4:c_diameter\[1\]:R:1:c_diameter\[2\]:R:1:c_diameter\[3\]:R:1:forces:R:3:torques:R:3 energy=-0.012062164666176158 pbc="F F F"
X       10.00000000      10.00000000      10.00000000       0.22550653      -0.55574730      -0.35164748       0.71877381       1.00000000       2.00000000       1.00000000       0.01171641       0.01148578       0.00947859      -0.00217109       0.00000000       0.00271178
X       11.67103142      11.86801383      11.58595938      -0.48978400       0.82781147      -0.24003864      -0.13122978       1.00000000       2.00000000       1.00000000      -0.01171641      -0.01148578      -0.00947859       0.00168958      -0.00000000      -0.00044639
2
Lattice="20.0 0.0 0.0 0.0 20.0 0.0 0.0 0.0 20.0" Properties=species:S:1:pos:R:3:quaternions:R:4:c_diameter\[1\]:R:1:c_diameter\[2\]:R:1:c_diameter\[3\]:R:1:forces:R:3:torques:R:3 energy=-0.07666195282830802 pbc="F F F"
X       10.00000000      10.00000000      10.00000000       0.02252451       0.87873691       0.24377113      -0.40974349       1.00000000       2.00000000       1.00000000       0.16601202       0.09098548       0.05839807      -0.06758071      -0.00000000      -0.01834642
X       11.88886779      11.54283047      11.15960031       0.29583881       0.88953438      -0.32249994       0.13115552       1.00000000       2.00000000       1.00000000      -0.16601202      -0.09098548      -0.05839807       0.06381537      -0.00000000      -0.02661532
2
Lattice="20.0 0.0 0.0 0.0 20.0 0.0 0.0 0.0 20.0" Properties=species:S:1:pos:R:3:quaternions:R:4:c_diameter\[1\]:R:1:c_diameter\[2\]:R:1:c_diameter\[3\]:R:1:forces:R:3:torques:R:3 energy=-0.15631719224708157 pbc="F F F"
X       10.00000000      10.00000000      10.00000000      -0.25268822       0.69283800       0.67473539      -0.02926299       1.00000000       2.00000000       1.00000000       0.06738138       0.37889551       0.28646475       0.23901166      -0.00000000       0.05240605
X       11.01724961      11.41720331      11.69919506      -0.28446209      -0.61821220       0.64759381      -0.34280789       1.00000000       2.00000000       1.00000000      -0.06738138      -0.37889551      -0.28646475      -0.00170282      -0.00000000       0.25341572
2
Lattice="20.0 0.0 0.0 0.0 20.0 0.0 0.0 0.0 20.0" Properties=species:S:1:pos:R:3:quaternions:R:4:c_diameter\[1\]:R:1:c_diameter\[2\]:R:1:c_diameter\[3\]:R:1:forces:R:3:torques:R:3 energy=-0.035328595756665526 pbc="F F F"
X       10.00000000      10.00000000      10.00000000       0.02749999       0.76316069       0.09230867      -0.63899031       1.00000000       2.00000000       1.00000000       0.03675268       0.03385616       0.05968780      -0.03531764      -0.00000000       0.02748540
X       11.20864823      11.65272124      11.70218144      -0.10710048       0.53623480       0.76461852      -0.34108686       1.00000000       2.00000000       1.00000000      -0.03675268      -0.03385616      -0.05968780       0.02177534      -0.00000000      -0.00272906
2
Lattice="20.0 0.0 0.0 0.0 20.0 0.0 0.0 0.0 20.0" Properties=species:S:1:pos:R:3:quaternions:R:4:c_diameter\[1\]:R:1:c_diameter\[2\]:R:1:c_diameter\[3\]:R:1:forces:R:3:torques:R:3 energy=-0.1011594769266037 pbc="F F F"
X       10.00000000      10.00000000      10.00000000       0.78422056      -0.40572615       0.31406459      -0.34892383       1.00000000       2.00000000       1.00000000       0.10445186       0.27064971       0.10587879       0.04741157      -0.00000000       0.03245950
X       11.04923700      11.91110372      11.10728949      -0.17815706       0.53769955      -0.52990158       0.63114465       1.00000000       2.00000000       1.00000000      -0.10445186      -0.27064971      -0.10587879      -0.14846349      -0.00000000       0.04742180
2
Lattice="20.0 0.0 0.0 0.0 20.0 0.0 0.0 0.0 20.0" Properties=species:S:1:pos:R:3:quaternions:R:4:c_diameter\[1\]:R:1:c_diameter\[2\]:R:1:c_diameter\[3\]:R:1:forces:R:3:torques:R:3 energy=-0.06288820572397814 pbc="F F F"
X       10.00000000      10.00000000      10.00000000       0.39879648      -0.41403882       0.48882125       0.65619129       1.00000000       2.00000000       1.00000000       0.08895838       0.11846334       0.02842577      -0.00565305      -0.00000000      -0.07186315
X       11.30532747      11.73415884      11.33267298       0.61967323       0.72788954       0.21323235      -0.20177680       1.00000000       2.00000000       1.00000000      -0.08895838      -0.11846334      -0.02842577      -0.00356847       0.00000000      -0.07644237
2
Lattice="20.0 0.0 0.0 0.0 20.0 0.0 0.0 0.0 20.0" Properties=species:S:1:pos:R:3:quaternions:R:4:c_diameter\[1\]:R:1:c_diameter\[2\]:R:1:c_diameter\[3\]:R:1:forces:R:3:torques:R:3 energy=-0.02042124895211597 pbc="F F F"
X       10.00000000      10.00000000      10.00000000       0.03289625      -0.32527520      -0.39865058       0.85684981       1.00000000       2.00000000       1.00000000       0.02774475       0.00945689       0.01720536      -0.01734406      -0.00000000       0.01295222
X       11.85286122      11.61273884      11.84409090       0.57157674      -0.15415221       0.80522664      -0.03387027       1.00000000       2.00000000       1.00000000      -0.02774475      -0.00945689      -0.01720536       0.01659684       0.00000000       0.01327807
2
Lattice="20.0 0.0 0.0 0.0 20.0 0.0 0.0 0.0 20.0" Properties=species:S:1:pos:R:3:quaternions:R:4:c_diameter\[1\]:R:1:c_diameter\[2\]:R:1:c_diameter\[3\]:R:1:forces:R:3:torques:R:3 energy=-0.026069271267317923 pbc="F F F"
X       10.00000000      10.00000000      10.00000000      -0.20246277       0.68966139      -0.60981514      -0.33391840       1.00000000       2.00000000       1.00000000       0.01864365       0.03251027       0.02919473      -0.02017630       0.00000000       0.00995458
X       11.91118416      11.84886294      11.35032219      -0.02756083       0.64132959       0.76579617      -0.03863927       1.00000000       2.00000000       1.00000000      -0.01864365      -0.03251027      -0.02919473       0.01206748       0.00000000       0.02371884
2
Lattice="20.0 0.0 0.0 0.0 20.0 0.0 0.0 0.0 20.0" Properties=species:S:1:pos:R:3:quaternions:R:4:c_diameter\[1\]:R:1:c_diameter\[2\]:R:1:c_diameter\[3\]:R:1:forces:R:3:torques:R:3 energy=-0.05032393472509417 pbc="F F F"
X       10.00000000      10.00000000      10.00000000      -0.53645324       0.00952001      -0.28395776       0.79466678       1.00000000       2.00000000       1.00000000       0.03326641       0.06736645       0.07761170      -0.01003408       0.00000000      -0.05363536
X       11.66824449      11.60915839      11.74186427      -0.43772034       0.72578542      -0.35351705       0.39580567       1.00000000       2.00000000       1.00000000      -0.03326641      -0.06736645      -0.07761170      -0.02990241      -0.00000000      -0.05470781
2
Lattice="20.0 0.0 0.0 0.0 20.0 0.0 0.0 0.0 20.0" Properties=species:S:1:pos:R:3:quaternions:R:4:c_diameter\[1\]:R:1:c_diameter\[2\]:R:1:c_diameter\[3\]:R:1:forces:R:3:torques:R:3 energy=-0.47685575602117464 pbc="F F F"
X       10.00000000      10.00000000      10.00000000      -0.55280341       0.63433939      -0.28326798       0.46019690       1.00000000       2.00000000       1.00000000       0.83523242       1.48759659       1.63763610      -0.11912845       0.00000000      -0.67242352
X       11.06566618      11.01471003      11.01687799       0.69664353      -0.30215928       0.40413656      -0.50996196       1.00000000       2.00000000       1.00000000      -0.83523242      -1.48759659      -1.63763610      -0.38659656      -0.00000000      -0.55446129
2
Lattice="20.0 0.0 0.0 0.0 20.0 0.0 0.0 0.0 20.0" Properties=species:S:1:pos:R:3:quaternions:R:4:c_diameter\[1\]:R:1:c_diameter\[2\]:R:1:c_diameter\[3\]:R:1:forces:R:3:torques:R:3 energy=-0.024896516333564697 pbc="F F F"
X       10.00000000      10.00000000      10.00000000       0.84760884       0.15772681      -0.32353016      -0.38988427       1.00000000       2.00000000       1.00000000       0.03346250       0.03402755       0.01692035       0.00471185      -0.00000000      -0.00285422
X       11.69068159      11.60497221      11.14471946      -0.53805313       0.47311180       0.43410734       0.54609053       1.00000000       2.00000000       1.00000000      -0.03346250      -0.03402755      -0.01692035      -0.01047931      -0.00000000       0.01120941
2
Lattice="20.0 0.0 0.0 0.0 20.0 0.0 0.0 0.0 20.0" Properties=species:S:1:pos:R:3:quaternions:R:4:c_diameter\[1\]:R:1:c_diameter\[2\]:R:1:c_diameter\[3\]:R:1:forces:R:3:torques:R:3 energy=-0.08913088610888122 pbc="F F F"
X       10.00000000      10.00000000      10.00000000       0.83386685      -0.46283399      -0.10365839       0.28232200       1.00000000       2.00000000       1.00000000       0.10948550       0.18328047       0.06779677       0.10513024       0.00000000       0.04669973
X       11.81732777      11.73919193      11.23907600       0.60517869       0.47359529      -0.40555906      -0.49496273       1.00000000       2.00000000       1.00000000      -0.10948550      -0.18328047      -0.06779677       0.13712159       0.00000000       0.03845420
2
Lattice="20.0 0.0 0.0 0.0 20.0 0.0 0.0 0.0 20.0" Properties=species:S:1:pos:R:3:quaternions:R:4:c_diameter\[1\]:R:1:c_diameter\[2\]:R:1:c_diameter\[3\]:R:1:forces:R:3:torques:R:3 energy=-0.02672100563989178 pbc="F F F"
X       10.00000000      10.00000000      10.00000000      -0.55797195      -0.53823870       0.61031897       0.16271802       1.00000000       2.00000000       1.00000000       0.02900394       0.03340476       0.02884136       0.01755548      -0.00000000       0.01562421
X       11.40087213      11.69896036      11.85975816       0.20388076      -0.05633792      -0.32608818       0.92137135       1.00000000       2.00000000       1.00000000      -0.02900394      -0.03340476      -0.02884136      -0.00081384       0.00000000       0.02884308
2
Lattice="20.0 0.0 0.0 0.0 20.0 0.0 0.0 0.0 20.0" Properties=species:S:1:pos:R:3:quaternions:R:4:c_diameter\[1\]:R:1:c_diameter\[2\]:R:1:c_diameter\[3\]:R:1:forces:R:3:torques:R:3 energy=-0.04018315297431031 pbc="F F F"
X       10.00000000      10.00000000      10.00000000       0.63281140       0.23541748       0.44242304      -0.59024587       1.00000000       2.00000000       1.00000000       0.03572405       0.06200800       0.04912439      -0.02107554      -0.00000000      -0.04901664
X       11.75523799      11.71184698      11.51556080      -0.01577457       0.86929612      -0.46572701      -0.16484472       1.00000000       2.00000000       1.00000000      -0.03572405      -0.06200800      -0.04912439      -0.04580616      -0.00000000       0.03123842
2
Lattice="20.0 0.0 0.0 0.0 20.0 0.0 0.0 0.0 20.0" Properties=species:S:1:pos:R:3:quaternions:R:4:c_diameter\[1\]:R:1:c_diameter\[2\]:R:1:c_diameter\[3\]:R:1:forces:R:3:torques:R:3 energy=-0.034053372628383545 pbc="F F F"
X       10.00000000      10.00000000      10.00000000      -0.68078921      -0.11400444       0.04422602       0.72220017       1.00000000       2.00000000       1.00000000       0.02612666       0.03126914       0.05315245       0.03791047       0.00000000      -0.02306129
X       11.62002288      11.77879655      11.85821706       0.03690456       0.91216843      -0.17239010       0.36995737       1.00000000       2.00000000       1.00000000      -0.02612666      -0.03126914      -0.05315245      -0.00878781      -0.00000000      -0.04510964
2
Lattice="20.0 0.0 0.0 0.0 20.0 0.0 0.0 0.0 20.0" Properties=species:S:1:pos:R:3:quaternions:R:4:c_diameter\[1\]:R:1:c_diameter\[2\]:R:1:c_diameter\[3\]:R:1:forces:R:3:torques:R:3 energy=-0.020342495854760157 pbc="F F F"
X       10.00000000      10.00000000      10.00000000      -0.50703834       0.18408741       0.76272319      -0.35675943       1.00000000       2.00000000       1.00000000       0.01802574       0.01602459       0.02808759       0.00899726      -0.00000000      -0.01779655
X       11.62681781      11.55862242      11.73124179      -0.36732609      -0.24513877       0.89120791      -0.10357115       1.00000000       2.00000000       1.00000000      -0.01802574      -0.01602459      -0.02808759      -0.00430916      -0.00000000      -0.00495565
2
Lattice="20.0 0.0 0.0 0.0 20.0 0.0 0.0 0.0 20.0" Properties=species:S:1:pos:R:3:quaternions:R:4:c_diameter\[1\]:R:1:c_diameter\[2\]:R:1:c_diameter\[3\]:R:1:forces:R:3:torques:R:3 energy=-0.07793062981910545 pbc="F F F"
X       10.00000000      10.00000000      10.00000000       0.70639816      -0.16442956       0.39467998       0.56408534       1.00000000       2.00000000       1.00000000       0.10151656       0.14156370       0.11060779      -0.03508169       0.00000000      -0.05099745
X       11.52523719      11.45213249      11.63834428      -0.34688162       0.79689375       0.25548037       0.42351301       1.00000000       2.00000000       1.00000000      -0.10151656      -0.14156370      -0.11060779      -0.00751251      -0.00000000       0.04532165
2
Lattice="20.0 0.0 0.0 0.0 20.0 0.0 0.0 0.0 20.0" Properties=species:S:1:pos:R:3:quaternions:R:4:c_diameter\[1\]:R:1:c_diameter\[2\]:R:1:c_diameter\[3\]:R:1:forces:R:3:torques:R:3 energy=-0.19246925560535721 pbc="F F F"
X       10.00000000      10.00000000      10.00000000       0.24355786       0.15105243      -0.14546022       0.94694459       1.00000000       2.00000000       1.00000000       0.45684569       0.31918184       0.25438125       0.14612700      -0.00000000       0.22517628
X       11.05413836      11.77366541      11.11087620       0.10343354       0.82925626       0.21546904      -0.50518179       1.00000000       2.00000000       1.00000000      -0.45684569      -0.31918184      -0.25438125      -0.26367882      -0.00000000      -0.05622366
2
Lattice="20.0 0.0 0.0 0.0 20.0 0.0 0.0 0.0 20.0" Properties=species:S:1:pos:R:3:quaternions:R:4:c_diameter\[1\]:R:1:c_diameter\[2\]:R:1:c_diameter\[3\]:R:1:forces:R:3:torques:R:3 energy=-0.18633565888886658 pbc="F F F"
X       10.00000000      10.00000000      10.00000000      -0.34255709      -0.16332247       0.08271556       0.92148714       1.00000000       2.00000000       1.00000000       0.23478821       0.22785367       0.44316092       0.22618103      -0.00000000       0.09910109
X       11.47705891      11.56560912      11.31251301      -0.27759611       0.75448765      -0.22111262       0.55208513       1.00000000       2.00000000       1.00000000      -0.23478821      -0.22785367      -0.44316092      -0.04778127      -0.00000000      -0.27254055
2
Lattice="20.0 0.0 0.0 0.0 20.0 0.0 0.0 0.0 20.0" Properties=species:S:1:pos:R:3:quaternions:R:4:c_diameter\[1\]:R:1:c_diameter\[2\]:R:1:c_diameter\[3\]:R:1:forces:R:3:torques:R:3 energy=-0.07531454518395636 pbc="F F F"
X       10.00000000      10.00000000      10.00000000       0.06325891       0.54333223       0.83145549      -0.09731475       1.00000000       2.00000000       1.00000000       0.07168109       0.12794156       0.14271686       0.08994111       0.00000000       0.03405676
X       11.39395642      11.19323823      11.82112936       0.65616725      -0.62175078       0.06363304       0.42287272       1.00000000       2.00000000       1.00000000      -0.07168109      -0.12794156      -0.14271686       0.09946042      -0.00000000      -0.06880611
2
Lattice="20.0 0.0 0.0 0.0 20.0 0.0 0.0 0.0 20.0" Properties=species:S:1:pos:R:3:quaternions:R:4:c_diameter\[1\]:R:1:c_diameter\[2\]:R:1:c_diameter\[3\]:R:1:forces:R:3:torques:R:3 energy=-0.14514036708391925 pbc="F F F"
X       10.00000000      10.00000000      10.00000000       0.71808929      -0.32321178      -0.54056041       0.29610194       1.00000000       2.00000000       1.00000000       0.18855713       0.30527365       0.20949781       0.01969172       0.00000000      -0.20859637
X       11.75773550      11.61490226      11.34627396       0.68767076      -0.63145997      -0.20165257       0.29614772       1.00000000       2.00000000       1.00000000      -0.18855713      -0.30527365      -0.20949781       0.26003523      -0.00000000       0.01135466
2
Lattice="20.0 0.0 0.0 0.0 20.0 0.0 0.0 0.0 20.0" Properties=species:S:1:pos:R:3:quaternions:R:4:c_diameter\[1\]:R:1:c_diameter\[2\]:R:1:c_diameter\[3\]:R:1:forces:R:3:torques:R:3 energy=-0.031878666466200384 pbc="F F F"
X       10.00000000      10.00000000      10.00000000      -0.49858857       0.85886319       0.11288101       0.03195835       1.00000000       2.00000000       1.00000000       0.03940533       0.03804599       0.03644414       0.00838136      -0.00000000       0.00346909
X       11.87683315      11.76303815      11.19584665      -0.23552367      -0.36963406       0.26816455       0.85789687       1.00000000       2.00000000       1.00000000      -0.03940533      -0.03804599      -0.03644414       0.02087416      -0.00000000       0.02816079
2
Lattice="20.0 0.0 0.0 0.0 20.0 0.0 0.0 0.0 20.0" Properties=species:S:1:pos:R:3:quaternions:R:4:c_diameter\[1\]:R:1:c_diameter\[2\]:R:1:c_diameter\[3\]:R:1:forces:R:3:torques:R:3 energy=-0.022326654134158744 pbc="F F F"
X       10.00000000      10.00000000      10.00000000       0.42106502       0.57037090       0.64671341       0.28132376       1.00000000       2.00000000       1.00000000       0.01307407       0.03152452       0.02531644      -0.00902567      -0.00000000       0.02003019
X       11.30480767      11.89124534      11.57096297      -0.22633601      -0.05195258       0.81179847      -0.53577624       1.00000000       2.00000000       1.00000000      -0.01307407      -0.03152452      -0.02531644      -0.00593665      -0.00000000       0.00204310
2
Lattice="20.0 0.0 0.0 0.0 20.0 0.0 0.0 0.0 20.0" Properties=species:S:1:pos:R:3:quaternions:R:4:c_diameter\[1\]:R:1:c_diameter\[2\]:R:1:c_diameter\[3\]:R:1:forces:R:3:torques:R:3 energy=-0.28057660976112286 pbc="F F F"
X       10.00000000      10.00000000      10.00000000       0.23176177       0.47673453       0.82014354      -0.21534911       1.00000000       2.00000000       1.00000000       0.74102960       0.66403203       0.58719083       0.39101694       0.00000000       0.12729944
X       11.23753016      11.54586546      11.05653979       0.37135459       0.81150314       0.13560305      -0.43031411       1.00000000       2.00000000       1.00000000      -0.74102960      -0.66403203      -0.58719083      -0.38448134      -0.00000000      -0.33728416
2
Lattice="20.0 0.0 0.0 0.0 20.0 0.0 0.0 0.0 20.0" Properties=species:S:1:pos:R:3:quaternions:R:4:c_diameter\[1\]:R:1:c_diameter\[2\]:R:1:c_diameter\[3\]:R:1:forces:R:3:torques:R:3 energy=-0.031753213655364494 pbc="F F F"
X       10.00000000      10.00000000      10.00000000      -0.28561031      -0.44624144       0.83563173       0.14496532       1.00000000       2.00000000       1.00000000       0.03225648       0.04740793       0.03057736       0.00714159       0.00000000       0.02336474
X       11.82762773      11.47133054      11.16396703       0.45743561       0.00790464      -0.07716396       0.88585321       1.00000000       2.00000000       1.00000000      -0.03225648      -0.04740793      -0.03057736      -0.01131532       0.00000000      -0.01688971
2
Lattice="20.0 0.0 0.0 0.0 20.0 0.0 0.0 0.0 20.0" Properties=species:S:1:pos:R:3:quaternions:R:4:c_diameter\[1\]:R:1:c_diameter\[2\]:R:1:c_diameter\[3\]:R:1:forces:R:3:torques:R:3 energy=-0.014734305250245109 pbc="F F F"
X       10.00000000      10.00000000      10.00000000       0.45787522      -0.49978848      -0.42596261       0.59926423       1.00000000       2.00000000       1.00000000       0.01251128       0.01732828       0.01123210       0.00856332       0.00000000      -0.00524339
X       11.70671304      11.86446626      11.67068201       0.65675742      -0.48867830      -0.31834406      -0.47803794       1.00000000       2.00000000       1.00000000      -0.01251128      -0.01732828      -0.01123210      -0.00267611       0.00000000       0.00964718
2
Lattice="20.0 0.0 0.0 0.0 20.0 0.0 0.0 0.0 20.0" Properties=species:S:1:pos:R:3:quaternions:R:4:c_diameter\[1\]:R:1:c_diameter\[2\]:R:1:c_diameter\[3\]:R:1:forces:R:3:torques:R:3 energy=-0.02798356454780253 pbc="F F F"
X       10.00000000      10.00000000      10.00000000       0.36137491      -0.28625764      -0.34933947       0.81573689       1.00000000       2.00000000       1.00000000       0.02079770       0.04074396       0.03239071      -0.00561994      -0.00000000       0.00238684
X       11.35053202      11.71357936      11.66699962       0.10899364      -0.57284375       0.76438419      -0.27511314       1.00000000       2.00000000       1.00000000      -0.02079770      -0.04074396      -0.03239071      -0.02215620      -0.00000000       0.01699041
2
Lattice="20.0 0.0 0.0 0.0 20.0 0.0 0.0 0.0 20.0" Properties=species:S:1:pos:R:3:quaternions:R:4:c_diameter\[1\]:R:1:c_diameter\[2\]:R:1:c_diameter\[3\]:R:1:forces:R:3:torques:R:3 energy=-0.25105360669555427 pbc="F F F"
X       10.00000000      10.00000000      10.00000000       0.71652204       0.15314817       0.61380760       0.29390820       1.00000000       2.00000000       1.00000000       0.68271722       0.25350148       0.38239202       0.15137375      -0.00000000       0.39012010
X       11.78012648      11.48608146      11.20011488       0.42621948      -0.05151064       0.81732636       0.38426713       1.00000000       2.00000000       1.00000000      -0.68271722      -0.25350148      -0.38239202       0.32640848      -0.00000000      -0.33096467
2
Lattice="20.0 0.0 0.0 0.0 20.0 0.0 0.0 0.0 20.0" Properties=species:S:1:pos:R:3:quaternions:R:4:c_diameter\[1\]:R:1:c_diameter\[2\]:R:1:c_diameter\[3\]:R:1:forces:R:3:torques:R:3 energy=-0.03476941850941497 pbc="F F F"
X       10.00000000      10.00000000      10.00000000      -0.51068704       0.31649540       0.24643857       0.76045871       1.00000000       2.00000000       1.00000000       0.03765566       0.03077346       0.06052619      -0.00196537       0.00000000      -0.00829029
X       11.16029959      11.37581345      11.75692106      -0.10436479       0.99243743      -0.03611788      -0.05358581       1.00000000       2.00000000       1.00000000      -0.03765566      -0.03077346      -0.06052619      -0.02625307      -0.00000000      -0.02002540
2
Lattice="20.0 0.0 0.0 0.0 20.0 0.0 0.0 0.0 20.0" Properties=species:S:1:pos:R:3:quaternions:R:4:c_diameter\[1\]:R:1:c_diameter\[2\]:R:1:c_diameter\[3\]:R:1:forces:R:3:torques:R:3 energy=-0.06597067937959078 pbc="F F F"
X       10.00000000      10.00000000      10.00000000       0.00421096      -0.37025923       0.76988027      -0.51978335       1.00000000       2.00000000       1.00000000       0.04204159       0.13352613       0.09470548      -0.07070573       0.00000000       0.05918137
X       11.32921923      11.76364570      11.41928216       0.86516809       0.11689337       0.13310200       0.46915240       1.00000000       2.00000000       1.00000000      -0.04204159      -0.13352613      -0.09470548      -0.10141833      -0.00000000      -0.01486976
2
Lattice="20.0 0.0 0.0 0.0 20.0 0.0 0.0 0.0 20.0" Properties=species:S:1:pos:R:3:quaternions:R:4:c_diameter\[1\]:R:1:c_diameter\[2\]:R:1:c_diameter\[3\]:R:1:forces:R:3:torques:R:3 energy=-0.06345553864628922 pbc="F F F"
X       10.00000000      10.00000000      10.00000000       0.28119829      -0.06534622       0.69852210      -0.65477039       1.00000000       2.00000000       1.00000000       0.11500036       0.10636763       0.05954123      -0.08718392      -0.00000000       0.02371346
X       11.43325599      11.68053231      11.31740060       0.74220287      -0.13290194       0.65627772      -0.02777650       1.00000000       2.00000000       1.00000000      -0.11500036      -0.10636763      -0.05954123       0.07970725      -0.00000000       0.03667604
2
Lattice="20.0 0.0 0.0 0.0 20.0 0.0 0.0 0.0 20.0" Properties=species:S:1:pos:R:3:quaternions:R:4:c_diameter\[1\]:R:1:c_diameter\[2\]:R:1:c_diameter\[3\]:R:1:forces:R:3:torques:R:3 energy=-0.0651738501418466 pbc="F F F"
X       10.00000000      10.00000000      10.00000000      -0.64222770       0.29804537      -0.27363601       0.65102679       1.00000000       2.00000000       1.00000000       0.10918754       0.10385343       0.08092631      -0.01504240      -0.00000000      -0.09360203
X       11.80987151      11.25799510      11.42934047       0.60775845       0.79059204       0.00449858       0.07465693       1.00000000       2.00000000       1.00000000      -0.10918754      -0.10385343      -0.08092631       0.05757711      -0.00000000      -0.06578245
2
Lattice="20.0 0.0 0.0 0.0 20.0 0.0 0.0 0.0 20.0" Properties=species:S:1:pos:R:3:quaternions:R:4:c_diameter\[1\]:R:1:c_diameter\[2\]:R:1:c_diameter\[3\]:R:1:forces:R:3:torques:R:3 energy=-0.021877784919109713 pbc="F F F"
X       10.00000000      10.00000000      10.00000000      -0.36250806      -0.02851795       0.80547702      -0.46795449       1.00000000       2.00000000       1.00000000       0.02094633       0.02712691       0.02423261      -0.00232445      -0.00000000      -0.00530535
X       11.29383360      11.77596342      11.47056433      -0.46856571       0.62566642      -0.62295907       0.03016116       1.00000000       2.00000000       1.00000000      -0.02094633      -0.02712691      -0.02423261       0.00233213       0.00000000       0.00392936
2
Lattice="20.0 0.0 0.0 0.0 20.0 0.0 0.0 0.0 20.0" Properties=species:S:1:pos:R:3:quaternions:R:4:c_diameter\[1\]:R:1:c_diameter\[2\]:R:1:c_diameter\[3\]:R:1:forces:R:3:torques:R:3 energy=-0.14327245686312418 pbc="F F F"
X       10.00000000      10.00000000      10.00000000       0.59530732       0.54550834       0.04133659      -0.58849055       1.00000000       2.00000000       1.00000000       0.13925960       0.32804992       0.23505665       0.15088916      -0.00000000      -0.03665097
X       11.22407895      11.40898467      11.75626646       0.42202869       0.06582050       0.71963125      -0.54743977       1.00000000       2.00000000       1.00000000      -0.13925960      -0.32804992      -0.23505665      -0.19002895      -0.00000000      -0.07490411
2
Lattice="20.0 0.0 0.0 0.0 20.0 0.0 0.0 0.0 20.0" Properties=species:S:1:pos:R:3:quaternions:R:4:c_diameter\[1\]:R:1:c_diameter\[2\]:R:1:c_diameter\[3\]:R:1:forces:R:3:torques:R:3 energy=-0.05930990103617784 pbc="F F F"
X       10.00000000      10.00000000      10.00000000      -0.07766364      -0.34849257      -0.01893711       0.93389650       1.00000000       2.00000000       1.00000000       0.10835070       0.07191236       0.07878942       0.01317483      -0.00000000       0.08761073
X       11.46833092      11.72572258      11.14679103       0.39355827      -0.02951198      -0.37198209       0.84016085       1.00000000       2.00000000       1.00000000      -0.10835070      -0.07191236      -0.07878942      -0.00965798       0.00000000       0.02877931
2
Lattice="20.0 0.0 0.0 0.0 20.0 0.0 0.0 0.0 20.0" Properties=species:S:1:pos:R:3:quaternions:R:4:c_diameter\[1\]:R:1:c_diameter\[2\]:R:1:c_diameter\[3\]:R:1:forces:R:3:torques:R:3 energy=-0.2867455625715512 pbc="F F F"
X       10.00000000      10.00000000      10.00000000      -0.23142606      -0.55338426       0.05993191       0.79788220       1.00000000       2.00000000       1.00000000       0.33354876       0.65686927       0.60812935       0.08404046      -0.00000000       0.47669431
X       11.29491747      11.83005918      11.40924409       0.82718527      -0.31887509       0.11196922       0.44893885       1.00000000       2.00000000       1.00000000      -0.33354876      -0.65686927      -0.60812935       0.07859961       0.00000000      -0.42511875
2
Lattice="20.0 0.0 0.0 0.0 20.0 0.0 0.0 0.0 20.0" Properties=species:S:1:pos:R:3:quaternions:R:4:c_diameter\[1\]:R:1:c_diameter\[2\]:R:1:c_diameter\[3\]:R:1:forces:R:3:torques:R:3 energy=-0.38490171012048463 pbc="F F F"
X       10.00000000      10.00000000      10.00000000       0.93894873      -0.15741681      -0.20861750       0.22377213       1.00000000       2.00000000       1.00000000       1.03928586       0.95404753       0.61908243      -0.51171003       0.00000000       0.18692333
X       11.56194131      11.44296897      11.15023196      -0.15971822       0.52893831       0.68896556       0.46908508       1.00000000       2.00000000       1.00000000      -1.03928586      -0.95404753      -0.61908243      -0.62260345       0.00000000       0.44147237
2
Lattice="20.0 0.0 0.0 0.0 20.0 0.0 0.0 0.0 20.0" Properties=species:S:1:pos:R:3:quaternions:R:4:c_diameter\[1\]:R:1:c_diameter\[2\]:R:1:c_diameter\[3\]:R:1:forces:R:3:torques:R:3 energy=-0.1395093266723492 pbc="F F F"
X       10.00000000      10.00000000      10.00000000       0.36890416       0.31118245       0.84137199      -0.24324552       1.00000000       2.00000000       1.00000000       0.29216776       0.26106447       0.29381360       0.14074151       0.00000000       0.06353662
X       11.27627392      11.20274500      11.02889914      -0.46346670       0.88597500       0.00307269       0.01541041       1.00000000       2.00000000       1.00000000      -0.29216776      -0.26106447      -0.29381360       0.03951355      -0.00000000       0.01594033
2
Lattice="20.0 0.0 0.0 0.0 20.0 0.0 0.0 0.0 20.0" Properties=species:S:1:pos:R:3:quaternions:R:4:c_diameter\[1\]:R:1:c_diameter\[2\]:R:1:c_diameter\[3\]:R:1:forces:R:3:torques:R:3 energy=-0.04887038035886514 pbc="F F F"
X       10.00000000      10.00000000      10.00000000       0.75735248       0.50604421       0.14064675      -0.38801413       1.00000000       2.00000000       1.00000000       0.05348318       0.09771395       0.04361263       0.04012142       0.00000000      -0.04514780
X       11.27795008      11.69074435      11.28064388      -0.22586570       0.06218712       0.80404510      -0.54646950       1.00000000       2.00000000       1.00000000      -0.05348318      -0.09771395      -0.04361263       0.00726406       0.00000000       0.01287260
2
Lattice="20.0 0.0 0.0 0.0 20.0 0.0 0.0 0.0 20.0" Properties=species:S:1:pos:R:3:quaternions:R:4:c_diameter\[1\]:R:1:c_diameter\[2\]:R:1:c_diameter\[3\]:R:1:forces:R:3:torques:R:3 energy=-0.024411332054487936 pbc="F F F"
X       10.00000000      10.00000000      10.00000000      -0.44133142      -0.14643820       0.85271427      -0.23803530       1.00000000       2.00000000       1.00000000       0.02855317       0.03031151       0.02148232       0.00402757      -0.00000000      -0.00572199
X       11.98905433      11.48300890      11.31210776       0.35351832       0.21902358       0.38779377       0.82259921       1.00000000       2.00000000       1.00000000      -0.02855317      -0.03031151      -0.02148232      -0.02343662       0.00000000      -0.00512918
2
Lattice="20.0 0.0 0.0 0.0 20.0 0.0 0.0 0.0 20.0" Properties=species:S:1:pos:R:3:quaternions:R:4:c_diameter\[1\]:R:1:c_diameter\[2\]:R:1:c_diameter\[3\]:R:1:forces:R:3:torques:R:3 energy=-0.04907347644539388 pbc="F F F"
X       10.00000000      10.00000000      10.00000000       0.68969055       0.45709876      -0.55558154       0.08195620       1.00000000       2.00000000       1.00000000       0.09859327       0.05669998       0.03760023       0.02714543      -0.00000000      -0.00172704
X       11.84241891      11.53954629      11.00687938       0.05657892       0.83087366      -0.09368841       0.54559166       1.00000000       2.00000000       1.00000000      -0.09859327      -0.05669998      -0.03760023       0.05767388      -0.00000000      -0.03439702
2
Lattice="20.0 0.0 0.0 0.0 20.0 0.0 0.0 0.0 20.0" Properties=species:S:1:pos:R:3:quaternions:R:4:c_diameter\[1\]:R:1:c_diameter\[2\]:R:1:c_diameter\[3\]:R:1:forces:R:3:torques:R:3 energy=-0.0361311216278915 pbc="F F F"
X       10.00000000      10.00000000      10.00000000       0.67932901       0.27257948      -0.65525544       0.18668914       1.00000000       2.00000000       1.00000000       0.05388188       0.02751538       0.04454813      -0.00712832      -0.00000000      -0.00955443
X       11.94193879      11.56839913      11.42561203       0.77194775       0.08483975       0.59063907       0.21919029       1.00000000       2.00000000       1.00000000      -0.05388188      -0.02751538      -0.04454813       0.01777202      -0.00000000       0.02759833
2
Lattice="20.0 0.0 0.0 0.0 20.0 0.0 0.0 0.0 20.0" Properties=species:S:1:pos:R:3:quaternions:R:4:c_diameter\[1\]:R:1:c_diameter\[2\]:R:1:c_diameter\[3\]:R:1:forces:R:3:torques:R:3 energy=-0.021793108076420306 pbc="F F F"
X       10.00000000      10.00000000      10.00000000      -0.40081350       0.02190778       0.54514552       0.73599249       1.00000000       2.00000000       1.00000000       0.01796565       0.03470547       0.01604119      -0.00062736      -0.00000000      -0.00040756
X       11.33394852      11.98869432      11.16073013       0.45911763      -0.20199395       0.70158447      -0.50615085       1.00000000       2.00000000       1.00000000      -0.01796565      -0.03470547      -0.01604119      -0.01292588       0.00000000      -0.00399300
2
Lattice="20.0 0.0 0.0 0.0 20.0 0.0 0.0 0.0 20.0" Properties=species:S:1:pos:R:3:quaternions:R:4:c_diameter\[1\]:R:1:c_diameter\[2\]:R:1:c_diameter\[3\]:R:1:forces:R:3:torques:R:3 energy=-0.1435428032073185 pbc="F F F"
X       10.00000000      10.00000000      10.00000000       0.11629995       0.60474075       0.75041189       0.24009361       1.00000000       2.00000000       1.00000000       0.09170932       0.38415852       0.20049808       0.05965953       0.00000000       0.21194774
X       11.22022781      11.63790964      11.14356984      -0.13324584       0.73700921       0.60451176       0.27134571       1.00000000       2.00000000       1.00000000      -0.09170932      -0.38415852      -0.20049808      -0.04382303       0.00000000       0.19110649
2
Lattice="20.0 0.0 0.0 0.0 20.0 0.0 0.0 0.0 20.0" Properties=species:S:1:pos:R:3:quaternions:R:4:c_diameter\[1\]:R:1:c_diameter\[2\]:R:1:c_diameter\[3\]:R:1:forces:R:3:torques:R:3 energy=-0.013741904166564511 pbc="F F F"
X       10.00000000      10.00000000      10.00000000      -0.20263388       0.92373533      -0.31511354      -0.07972456       1.00000000       2.00000000       1.00000000       0.01394877       0.00751459       0.01548053      -0.01059901      -0.00000000      -0.00175764
X       11.88661651      11.47476599      11.82793978       0.13938718      -0.54025787      -0.34497075       0.75477667       1.00000000       2.00000000       1.00000000      -0.01394877      -0.00751459      -0.01548053      -0.00426595       0.00000000       0.00397081
2
Lattice="20.0 0.0 0.0 0.0 20.0 0.0 0.0 0.0 20.0" Properties=species:S:1:pos:R:3:quaternions:R:4:c_diameter\[1\]:R:1:c_diameter\[2\]:R:1:c_diameter\[3\]:R:1:forces:R:3:torques:R:3 energy=-0.02905248238240303 pbc="F F F"
X       10.00000000      10.00000000      10.00000000      -0.34505799      -0.64324384       0.68020808       0.06700237       1.00000000       2.00000000       1.00000000       0.02098414       0.04990257       0.02873182       0.00710043      -0.00000000       0.02870282
X       11.33574600      11.93045254      11.17088252       0.32289941       0.35112185       0.79699166      -0.37047767       1.00000000       2.00000000       1.00000000      -0.02098414      -0.04990257      -0.02873182       0.00799622      -0.00000000       0.00529330
2
Lattice="20.0 0.0 0.0 0.0 20.0 0.0 0.0 0.0 20.0" Properties=species:S:1:pos:R:3:quaternions:R:4:c_diameter\[1\]:R:1:c_diameter\[2\]:R:1:c_diameter\[3\]:R:1:forces:R:3:torques:R:3 energy=-0.014860504928842267 pbc="F F F"
X       10.00000000      10.00000000      10.00000000       0.00873445       0.96835117       0.21087172      -0.13323978       1.00000000       2.00000000       1.00000000       0.01468155       0.01235522       0.01575687      -0.00829649       0.00000000      -0.00690360
X       11.42026533      11.75493583      11.85405084      -0.56402691      -0.15151557       0.62766874      -0.51473161       1.00000000       2.00000000       1.00000000      -0.01468155      -0.01235522      -0.01575687       0.00139557       0.00000000       0.00132992
2
Lattice="20.0 0.0 0.0 0.0 20.0 0.0 0.0 0.0 20.0" Properties=species:S:1:pos:R:3:quaternions:R:4:c_diameter\[1\]:R:1:c_diameter\[2\]:R:1:c_diameter\[3\]:R:1:forces:R:3:torques:R:3 energy=-0.028057266957900145 pbc="F F F"
X       10.00000000      10.00000000      10.00000000       0.70485842      -0.29103170      -0.12143444       0.63539660       1.00000000       2.00000000       1.00000000       0.01456327       0.04598199       0.03006340       0.01102517      -0.00000000      -0.02994107
X       11.28311490      11.98615174      11.34286641      -0.35165045       0.77748123      -0.48008765      -0.20342257       1.00000000       2.00000000       1.00000000      -0.01456327      -0.04598199      -0.03006340      -0.01277093       0.00000000      -0.00015013
2
Lattice="20.0 0.0 0.0 0.0 20.0 0.0 0.0 0.0 20.0" Properties=species:S:1:pos:R:3:quaternions:R:4:c_diameter\[1\]:R:1:c_diameter\[2\]:R:1:c_diameter\[3\]:R:1:forces:R:3:torques:R:3 energy=-0.08316846828851795 pbc="F F F"
X       10.00000000      10.00000000      10.00000000       0.76788286      -0.08645944       0.57812504       0.26201548       1.00000000       2.00000000       1.00000000       0.18229077       0.06432881       0.09531222       0.07777612      -0.00000000       0.10439184
X       11.73826278      11.27252247      11.61108193      -0.17494479       0.12180593       0.74295713       0.63448588       1.00000000       2.00000000       1.00000000      -0.18229077      -0.06432881      -0.09531222      -0.10465255      -0.00000000      -0.07123058
2
Lattice="20.0 0.0 0.0 0.0 20.0 0.0 0.0 0.0 20.0" Properties=species:S:1:pos:R:3:quaternions:R:4:c_diameter\[1\]:R:1:c_diameter\[2\]:R:1:c_diameter\[3\]:R:1:forces:R:3:torques:R:3 energy=-0.07042920692630801 pbc="F F F"
X       10.00000000      10.00000000      10.00000000      -0.34945072      -0.08861802       0.27198722       0.89221858       1.00000000       2.00000000       1.00000000       0.09671873       0.11555460       0.13491459       0.08815874       0.00000000       0.02769684
X       11.08307423      11.64245744      11.21522392       0.15115204       0.90992965       0.38460745      -0.03547121       1.00000000       2.00000000       1.00000000      -0.09671873      -0.11555460      -0.13491459      -0.03638417       0.00000000      -0.04508266
2
Lattice="20.0 0.0 0.0 0.0 20.0 0.0 0.0 0.0 20.0" Properties=species:S:1:pos:R:3:quaternions:R:4:c_diameter\[1\]:R:1:c_diameter\[2\]:R:1:c_diameter\[3\]:R:1:forces:R:3:torques:R:3 energy=-0.06365929648125129 pbc="F F F"
X       10.00000000      10.00000000      10.00000000       0.13820445       0.30782186       0.93826155      -0.07622663       1.00000000       2.00000000       1.00000000       0.04753356       0.06573802       0.15433939       0.06923706       0.00000000      -0.00426371
X       11.09907354      11.00673455      11.78545361       0.37919371       0.59417238       0.47879126       0.52338345       1.00000000       2.00000000       1.00000000      -0.04753356      -0.06573802      -0.15433939      -0.03500409      -0.00000000       0.05228824
2
Lattice="20.0 0.0 0.0 0.0 20.0 0.0 0.0 0.0 20.0" Properties=species:S:1:pos:R:3:quaternions:R:4:c_diameter\[1\]:R:1:c_diameter\[2\]:R:1:c_diameter\[3\]:R:1:forces:R:3:torques:R:3 energy=-0.08674460785931809 pbc="F F F"
X       10.00000000      10.00000000      10.00000000       0.82797124       0.25445224      -0.26906332      -0.42109692       1.00000000       2.00000000       1.00000000       0.13787602       0.15361938       0.17084354       0.10278516       0.00000000       0.00499966
X       11.38228256      11.01009597      11.32623310       0.60486730       0.16446715       0.74489973      -0.22849618       1.00000000       2.00000000       1.00000000      -0.13787602      -0.15361938      -0.17084354      -0.00734288      -0.00000000       0.02319463
2
Lattice="20.0 0.0 0.0 0.0 20.0 0.0 0.0 0.0 20.0" Properties=species:S:1:pos:R:3:quaternions:R:4:c_diameter\[1\]:R:1:c_diameter\[2\]:R:1:c_diameter\[3\]:R:1:forces:R:3:torques:R:3 energy=-0.026245850903748643 pbc="F F F"
X       10.00000000      10.00000000      10.00000000       0.57300278      -0.06673372       0.76492843       0.28652910       1.00000000       2.00000000       1.00000000       0.03681615       0.02390311       0.02277119       0.02918276       0.00000000       0.00186094
X       11.80386887      11.80159508      11.68102352       0.26094822       0.27906080       0.77483641      -0.50364634       1.00000000       2.00000000       1.00000000      -0.03681615      -0.02390311      -0.02277119      -0.01394664       0.00000000      -0.00135055
2
Lattice="20.0 0.0 0.0 0.0 20.0 0.0 0.0 0.0 20.0" Properties=species:S:1:pos:R:3:quaternions:R:4:c_diameter\[1\]:R:1:c_diameter\[2\]:R:1:c_diameter\[3\]:R:1:forces:R:3:torques:R:3 energy=-0.0370849839262408 pbc="F F F"
X       10.00000000      10.00000000      10.00000000      -0.39825480       0.87126543       0.13047596      -0.25547150       1.00000000       2.00000000       1.00000000       0.03317741       0.06035094       0.04690100       0.02261244      -0.00000000       0.01211653
X       11.24171764      11.45403852      11.56024646       0.42327315       0.28089275       0.20493534       0.83662454       1.00000000       2.00000000       1.00000000      -0.03317741      -0.06035094      -0.04690100      -0.01942545      -0.00000000       0.00640197
2
Lattice="20.0 0.0 0.0 0.0 20.0 0.0 0.0 0.0 20.0" Properties=species:S:1:pos:R:3:quaternions:R:4:c_diameter\[1\]:R:1:c_diameter\[2\]:R:1:c_diameter\[3\]:R:1:forces:R:3:torques:R:3 energy=-0.09717151413287727 pbc="F F F"
X       10.00000000      10.00000000      10.00000000       0.77037364      -0.20051897       0.60498745      -0.01751505       1.00000000       2.00000000       1.00000000       0.15018078       0.06215270       0.21802447       0.10658968      -0.00000000       0.08496820
X       11.18983138      11.32334544      11.66934432       0.97714024       0.01956883       0.04890091       0.20596775       1.00000000       2.00000000       1.00000000      -0.15018078      -0.06215270      -0.21802447      -0.14614821      -0.00000000       0.02359235
2
Lattice="20.0 0.0 0.0 0.0 20.0 0.0 0.0 0.0 20.0" Properties=species:S:1:pos:R:3:quaternions:R:4:c_diameter\[1\]:R:1:c_diameter\[2\]:R:1:c_diameter\[3\]:R:1:forces:R:3:torques:R:3 energy=-0.14480354195099512 pbc="F F F"
X       10.00000000      10.00000000      10.00000000       0.22442364       0.68654630      -0.50294806       0.47469090       1.00000000       2.00000000       1.00000000       0.11498959       0.34187250       0.13263461       0.06652037       0.00000000       0.18075523
X       11.36112857      11.91426375      11.50755098       0.13492721       0.44750838       0.77612072       0.42328185       1.00000000       2.00000000       1.00000000      -0.11498959      -0.34187250      -0.13263461      -0.10795801      -0.00000000       0.20818285
2
Lattice="20.0 0.0 0.0 0.0 20.0 0.0 0.0 0.0 20.0" Properties=species:S:1:pos:R:3:quaternions:R:4:c_diameter\[1\]:R:1:c_diameter\[2\]:R:1:c_diameter\[3\]:R:1:forces:R:3:torques:R:3 energy=-0.02731574037460399 pbc="F F F"
X       10.00000000      10.00000000      10.00000000       0.40623480       0.09349134      -0.06711895       0.90649198       1.00000000       2.00000000       1.00000000       0.02902173       0.02129697       0.04234117       0.00579096      -0.00000000       0.01290120
X       11.24902310      11.51462364      11.78494418      -0.06013701       0.83004178      -0.14934940      -0.53395593       1.00000000       2.00000000       1.00000000      -0.02902173      -0.02129697      -0.04234117      -0.01521277      -0.00000000       0.02140191
2
Lattice="20.0 0.0 0.0 0.0 20.0 0.0 0.0 0.0 20.0" Properties=species:S:1:pos:R:3:quaternions:R:4:c_diameter\[1\]:R:1:c_diameter\[2\]:R:1:c_diameter\[3\]:R:1:forces:R:3:torques:R:3 energy=-0.1527622316469563 pbc="F F F"
X       10.00000000      10.00000000      10.00000000       0.03543591       0.83048615       0.45986735      -0.31234448       1.00000000       2.00000000       1.00000000       0.29166580       0.35886294       0.25166750      -0.00989974       0.00000000      -0.03392252
X       11.48622792      11.25941168      11.30420317       0.73224361      -0.25663209       0.15001243       0.61274427       1.00000000       2.00000000       1.00000000      -0.29166580      -0.35886294      -0.25166750       0.05057365       0.00000000      -0.23173959
2
Lattice="20.0 0.0 0.0 0.0 20.0 0.0 0.0 0.0 20.0" Properties=species:S:1:pos:R:3:quaternions:R:4:c_diameter\[1\]:R:1:c_diameter\[2\]:R:1:c_diameter\[3\]:R:1:forces:R:3:torques:R:3 energy=-0.04599954450827399 pbc="F F F"
X       10.00000000      10.00000000      10.00000000       0.51611603       0.49387841       0.65611698      -0.24334926       1.00000000       2.00000000       1.00000000       0.08109589       0.03557002       0.05327138      -0.01417642      -0.00000000      -0.02317524
X       11.72978692      11.06115412      11.90997657      -0.36684676       0.33244397       0.75408224       0.43158364       1.00000000       2.00000000       1.00000000      -0.08109589      -0.03557002      -0.05327138      -0.03804807       0.00000000      -0.03379787
2
Lattice="20.0 0.0 0.0 0.0 20.0 0.0 0.0 0.0 20.0" Properties=species:S:1:pos:R:3:quaternions:R:4:c_diameter\[1\]:R:1:c_diameter\[2\]:R:1:c_diameter\[3\]:R:1:forces:R:3:torques:R:3 energy=-0.09062407412180633 pbc="F F F"
X       10.00000000      10.00000000      10.00000000       0.46510334      -0.24600209       0.41255538       0.74361274       1.00000000       2.00000000       1.00000000       0.15499177       0.21999814       0.06625186      -0.01901636       0.00000000      -0.10434134
X       11.02061973      11.75531361      11.06529622       0.53235257      -0.39821475       0.73612521       0.12706464       1.00000000       2.00000000       1.00000000      -0.15499177      -0.21999814      -0.06625186       0.12181278       0.00000000      -0.05206331
2
Lattice="20.0 0.0 0.0 0.0 20.0 0.0 0.0 0.0 20.0" Properties=species:S:1:pos:R:3:quaternions:R:4:c_diameter\[1\]:R:1:c_diameter\[2\]:R:1:c_diameter\[3\]:R:1:forces:R:3:torques:R:3 energy=-0.019287553129789727 pbc="F F F"
X       10.00000000      10.00000000      10.00000000       0.19863797       0.12119831      -0.44651477       0.86398986       1.00000000       2.00000000       1.00000000       0.02547912       0.02269262       0.00586882       0.00307312      -0.00000000       0.01775024
X       11.88778628      11.86339898      11.06011342      -0.50426402       0.79891673       0.03699000      -0.32570170       1.00000000       2.00000000       1.00000000      -0.02547912      -0.02269262      -0.00586882       0.01071870       0.00000000      -0.00135402
2
Lattice="20.0 0.0 0.0 0.0 20.0 0.0 0.0 0.0 20.0" Properties=species:S:1:pos:R:3:quaternions:R:4:c_diameter\[1\]:R:1:c_diameter\[2\]:R:1:c_diameter\[3\]:R:1:forces:R:3:torques:R:3 energy=-0.04926790692148421 pbc="F F F"
X       10.00000000      10.00000000      10.00000000      -0.42412177      -0.14987090       0.81289484       0.36994785       1.00000000       2.00000000       1.00000000       0.07908093       0.06775815       0.05916346      -0.01864100      -0.00000000      -0.00977789
X       11.82040280      11.07245591      11.54594148       0.28995254       0.36725796       0.52171802       0.71334383       1.00000000       2.00000000       1.00000000      -0.07908093      -0.06775815      -0.05916346      -0.06713209       0.00000000      -0.00825201
2
Lattice="20.0 0.0 0.0 0.0 20.0 0.0 0.0 0.0 20.0" Properties=species:S:1:pos:R:3:quaternions:R:4:c_diameter\[1\]:R:1:c_diameter\[2\]:R:1:c_diameter\[3\]:R:1:forces:R:3:torques:R:3 energy=-0.054778534044566854 pbc="F F F"
X       10.00000000      10.00000000      10.00000000      -0.01177371       0.67888318      -0.07081799       0.73072828       1.00000000       2.00000000       1.00000000       0.09054144       0.07079794       0.07482690       0.05670675       0.00000000      -0.04024771
X       11.60598300      11.56279327      11.32437621       0.76574655       0.41972706      -0.46587974      -0.14288974       1.00000000       2.00000000       1.00000000      -0.09054144      -0.07079794      -0.07482690       0.03363138      -0.00000000       0.00716965
2
Lattice="20.0 0.0 0.0 0.0 20.0 0.0 0.0 0.0 20.0" Properties=species:S:1:pos:R:3:quaternions:R:4:c_diameter\[1\]:R:1:c_diameter\[2\]:R:1:c_diameter\[3\]:R:1:forces:R:3:torques:R:3 energy=-0.012953715182900054 pbc="F F F"
X       10.00000000      10.00000000      10.00000000      -0.53616267       0.76929553       0.25181017       0.23938591       1.00000000       2.00000000       1.00000000       0.01377647       0.01341454       0.00695882      -0.00099596       0.00000000       0.00759902
X       11.91141039      11.89813007      11.33185136       0.95436432       0.11430640      -0.10183041      -0.25642418       1.00000000       2.00000000       1.00000000      -0.01377647      -0.01341454      -0.00695882       0.00019984      -0.00000000       0.00316790
2
Lattice="20.0 0.0 0.0 0.0 20.0 0.0 0.0 0.0 20.0" Properties=species:S:1:pos:R:3:quaternions:R:4:c_diameter\[1\]:R:1:c_diameter\[2\]:R:1:c_diameter\[3\]:R:1:forces:R:3:torques:R:3 energy=-0.38901784078897417 pbc="F F F"
X       10.00000000      10.00000000      10.00000000       0.44308731       0.72218170      -0.46847820       0.25031062       1.00000000       2.00000000       1.00000000       0.99090145       0.91213275       1.05328246       0.50610144      -0.00000000       0.35899093
X       11.41931583      11.09394291      11.33628555       0.62561093       0.42123129       0.64900503       0.09983808       1.00000000       2.00000000       1.00000000      -0.99090145      -0.91213275      -1.05328246       0.13818406      -0.00000000       0.65288727
2
Lattice="20.0 0.0 0.0 0.0 20.0 0.0 0.0 0.0 20.0" Properties=species:S:1:pos:R:3:quaternions:R:4:c_diameter\[1\]:R:1:c_diameter\[2\]:R:1:c_diameter\[3\]:R:1:forces:R:3:torques:R:3 energy=-0.023159344172508374 pbc="F F F"
X       10.00000000      10.00000000      10.00000000      -0.36791759       0.58751884       0.11513090       0.71147954       1.00000000       2.00000000       1.00000000       0.02118481       0.02547238       0.02892472       0.01633193      -0.00000000      -0.01297886
X       11.60851376      11.80667114      11.29476013      -0.38878821      -0.29496914       0.62393952       0.61035760       1.00000000       2.00000000       1.00000000      -0.02118481      -0.02547238      -0.02892472       0.01362060       0.00000000       0.00339180
2
Lattice="20.0 0.0 0.0 0.0 20.0 0.0 0.0 0.0 20.0" Properties=species:S:1:pos:R:3:quaternions:R:4:c_diameter\[1\]:R:1:c_diameter\[2\]:R:1:c_diameter\[3\]:R:1:forces:R:3:torques:R:3 energy=-0.016805454838157027 pbc="F F F"
X       10.00000000      10.00000000      10.00000000       0.33586751       0.62790380       0.14051797       0.68788410       1.00000000       2.00000000       1.00000000       0.01843918       0.01595558       0.01641242       0.00590117       0.00000000      -0.00181302
X       11.75345778      11.84190314      11.28151937      -0.44716167       0.83093904      -0.12464048       0.30667818       1.00000000       2.00000000       1.00000000      -0.01843918      -0.01595558      -0.01641242      -0.00566209      -0.00000000      -0.01018625
2
Lattice="20.0 0.0 0.0 0.0 20.0 0.0 0.0 0.0 20.0" Properties=species:S:1:pos:R:3:quaternions:R:4:c_diameter\[1\]:R:1:c_diameter\[2\]:R:1:c_diameter\[3\]:R:1:forces:R:3:torques:R:3 energy=-0.2694307827667076 pbc="F F F"
X       10.00000000      10.00000000      10.00000000      -0.43638219       0.79421658       0.41026034       0.10235749       1.00000000       2.00000000       1.00000000       0.35314142       0.91468653       0.59410341       0.24995142       0.00000000       0.36753830
X       11.16384800      11.35732380      11.02381544       0.38398832       0.54361468       0.73202166       0.14553468       1.00000000       2.00000000       1.00000000      -0.35314142      -0.91468653      -0.59410341       0.04661473       0.00000000       0.54026525
2
Lattice="20.0 0.0 0.0 0.0 20.0 0.0 0.0 0.0 20.0" Properties=species:S:1:pos:R:3:quaternions:R:4:c_diameter\[1\]:R:1:c_diameter\[2\]:R:1:c_diameter\[3\]:R:1:forces:R:3:torques:R:3 energy=-0.023333493528664793 pbc="F F F"
X       10.00000000      10.00000000      10.00000000      -0.53430151       0.57680822      -0.47790779       0.39168650       1.00000000       2.00000000       1.00000000       0.02299638       0.02735021       0.02816836      -0.01647153      -0.00000000      -0.01283399
X       11.72185753      11.36627790      11.61188894      -0.45266816       0.77240425       0.19176035       0.40213328       1.00000000       2.00000000       1.00000000      -0.02299638      -0.02735021      -0.02816836       0.00233827      -0.00000000       0.00926799
2
Lattice="20.0 0.0 0.0 0.0 20.0 0.0 0.0 0.0 20.0" Properties=species:S:1:pos:R:3:quaternions:R:4:c_diameter\[1\]:R:1:c_diameter\[2\]:R:1:c_diameter\[3\]:R:1:forces:R:3:torques:R:3 energy=-0.06163017161736306 pbc="F F F"
X       10.00000000      10.00000000      10.00000000       0.02999442       0.56805265       0.74168104       0.35542335       1.00000000       2.00000000       1.00000000       0.06020490       0.09465594       0.11350739      -0.00121663       0.00000000       0.08547382
X       11.22079150      11.21669845      11.96256993      -0.60470983       0.64777936      -0.44920451       0.11368036       1.00000000       2.00000000       1.00000000      -0.06020490      -0.09465594      -0.11350739       0.03682965       0.00000000       0.01168867
2
Lattice="20.0 0.0 0.0 0.0 20.0 0.0 0.0 0.0 20.0" Properties=species:S:1:pos:R:3:quaternions:R:4:c_diameter\[1\]:R:1:c_diameter\[2\]:R:1:c_diameter\[3\]:R:1:forces:R:3:torques:R:3 energy=-0.046253118880778585 pbc="F F F"
X       10.00000000      10.00000000      10.00000000       0.63785924       0.32008150      -0.59522847       0.36930541       1.00000000       2.00000000       1.00000000       0.02952935       0.09763355       0.05296221      -0.00076802      -0.00000000      -0.00888178
X       11.07985361      11.90805935      11.06551815       0.70757423      -0.27426120      -0.11022598       0.64184868       1.00000000       2.00000000       1.00000000      -0.02952935      -0.09763355      -0.05296221       0.00551306      -0.00000000      -0.05610443
2
Lattice="20.0 0.0 0.0 0.0 20.0 0.0 0.0 0.0 20.0" Properties=species:S:1:pos:R:3:quaternions:R:4:c_diameter\[1\]:R:1:c_diameter\[2\]:R:1:c_diameter\[3\]:R:1:forces:R:3:torques:R:3 energy=-0.1398017877760969 pbc="F F F"
X       10.00000000      10.00000000      10.00000000      -0.58885992       0.10651527      -0.11604034       0.79273774       1.00000000       2.00000000       1.00000000       0.13977604       0.34624337       0.32891527       0.11624334       0.00000000      -0.22175619
X       11.02802328      11.24140810      11.46859664      -0.47735301      -0.26596319       0.69770995      -0.46324778       1.00000000       2.00000000       1.00000000      -0.13977604      -0.34624337      -0.32891527      -0.01908393       0.00000000       0.14737607
2
Lattice="20.0 0.0 0.0 0.0 20.0 0.0 0.0 0.0 20.0" Properties=species:S:1:pos:R:3:quaternions:R:4:c_diameter\[1\]:R:1:c_diameter\[2\]:R:1:c_diameter\[3\]:R:1:forces:R:3:torques:R:3 energy=-0.07487301032627487 pbc="F F F"
X       10.00000000      10.00000000      10.00000000      -0.51576099      -0.31829717       0.69904218      -0.37949644       1.00000000       2.00000000       1.00000000       0.10733887       0.14090081       0.07906964       0.00725786      -0.00000000       0.05027932
X       11.32953952      11.66790482      11.59157162       0.80711212      -0.54415534      -0.21834558       0.06921128       1.00000000       2.00000000       1.00000000      -0.10733887      -0.14090081      -0.07906964       0.03250209       0.00000000       0.05730467
2
Lattice="20.0 0.0 0.0 0.0 20.0 0.0 0.0 0.0 20.0" Properties=species:S:1:pos:R:3:quaternions:R:4:c_diameter\[1\]:R:1:c_diameter\[2\]:R:1:c_diameter\[3\]:R:1:forces:R:3:torques:R:3 energy=-0.03198210029718239 pbc="F F F"
X       10.00000000      10.00000000      10.00000000      -0.06250451       0.14351259      -0.35114468       0.92314394       1.00000000       2.00000000       1.00000000       0.05187040       0.03016969       0.01943984      -0.00670544      -0.00000000       0.02958063
X       11.97309938      11.78779828      11.29003182       0.51668707      -0.28997984       0.79772499      -0.11216511       1.00000000       2.00000000       1.00000000      -0.05187040      -0.03016969      -0.01943984       0.01825326       0.00000000       0.00468266
2
Lattice="20.0 0.0 0.0 0.0 20.0 0.0 0.0 0.0 20.0" Properties=species:S:1:pos:R:3:quaternions:R:4:c_diameter\[1\]:R:1:c_diameter\[2\]:R:1:c_diameter\[3\]:R:1:forces:R:3:torques:R:3 energy=-0.058304672042693205 pbc="F F F"
X       10.00000000      10.00000000      10.00000000       0.65800770       0.23666639      -0.64384541       0.31060904       1.00000000       2.00000000       1.00000000       0.08306657       0.08250539       0.07672803       0.01786117      -0.00000000       0.03202395
X       11.43857079      11.09897188      11.95749382      -0.35717648      -0.48651612       0.64151822      -0.47347799       1.00000000       2.00000000       1.00000000      -0.08306657      -0.08250539      -0.07672803       0.02205847      -0.00000000       0.05607538
2
Lattice="20.0 0.0 0.0 0.0 20.0 0.0 0.0 0.0 20.0" Properties=species:S:1:pos:R:3:quaternions:R:4:c_diameter\[1\]:R:1:c_diameter\[2\]:R:1:c_diameter\[3\]:R:1:forces:R:3:torques:R:3 energy=-0.04180676866690568 pbc="F F F"
X       10.00000000      10.00000000      10.00000000       0.64617946       0.60294973      -0.14591867       0.44453513       1.00000000       2.00000000       1.00000000       0.05968276       0.05159624       0.06031084       0.04721745       0.00000000      -0.00481113
X       11.06521977      11.53696406      11.69785705       0.84221509       0.14007728      -0.52062193       0.00221521       1.00000000       2.00000000       1.00000000      -0.05968276      -0.05159624      -0.06031084      -0.03210135       0.00000000      -0.01514937
2
Lattice="20.0 0.0 0.0 0.0 20.0 0.0 0.0 0.0 20.0" Properties=species:S:1:pos:R:3:quaternions:R:4:c_diameter\[1\]:R:1:c_diameter\[2\]:R:1:c_diameter\[3\]:R:1:forces:R:3:torques:R:3 energy=-0.11924410806328506 pbc="F F F"
X       10.00000000      10.00000000      10.00000000      -0.43600205      -0.03873168      -0.19716233       0.87722807       1.00000000       2.00000000       1.00000000       0.23050907       0.20739684       0.13018164       0.04947041      -0.00000000      -0.00621023
X       11.95743081      11.34183841      11.31295814      -0.52066209       0.80350196       0.28737192       0.02670156       1.00000000       2.00000000       1.00000000      -0.23050907      -0.20739684      -0.13018164       0.08597392      -0.00000000       0.16143101
2
Lattice="20.0 0.0 0.0 0.0 20.0 0.0 0.0 0.0 20.0" Properties=species:S:1:pos:R:3:quaternions:R:4:c_diameter\[1\]:R:1:c_diameter\[2\]:R:1:c_diameter\[3\]:R:1:forces:R:3:torques:R:3 energy=-0.11682919023697418 pbc="F F F"
X       10.00000000      10.00000000      10.00000000       0.44570711       0.62850701       0.63549067       0.04975663       1.00000000       2.00000000       1.00000000       0.12993551       0.14887272       0.28577953       0.02676803       0.00000000       0.10234003
X       11.43165354      11.20818028      11.46548524      -0.43549222       0.44318191      -0.23374774       0.74786250       1.00000000       2.00000000       1.00000000      -0.12993551      -0.14887272      -0.28577953       0.06588930      -0.00000000      -0.14189640
2
Lattice="20.0 0.0 0.0 0.0 20.0 0.0 0.0 0.0 20.0" Properties=species:S:1:pos:R:3:quaternions:R:4:c_diameter\[1\]:R:1:c_diameter\[2\]:R:1:c_diameter\[3\]:R:1:forces:R:3:torques:R:3 energy=-0.30646432463697465 pbc="F F F"
X       10.00000000      10.00000000      10.00000000      -0.02217985       0.47716610       0.70325781       0.52654441       1.00000000       2.00000000       1.00000000       0.49985660       0.98420851       0.73507762      -0.50463093       0.00000000       0.47959788
X       11.26674366      11.18417720      11.22621057      -0.30754334       0.40062597       0.73369087      -0.45454773       1.00000000       2.00000000       1.00000000      -0.49985660      -0.98420851      -0.73507762       0.36371292       0.00000000      -0.23234264
2
Lattice="20.0 0.0 0.0 0.0 20.0 0.0 0.0 0.0 20.0" Properties=species:S:1:pos:R:3:quaternions:R:4:c_diameter\[1\]:R:1:c_diameter\[2\]:R:1:c_diameter\[3\]:R:1:forces:R:3:torques:R:3 energy=-0.03446077760226015 pbc="F F F"
X       10.00000000      10.00000000      10.00000000      -0.57750981      -0.01594154      -0.56077059       0.59309749       1.00000000       2.00000000       1.00000000       0.01447669       0.06526377       0.02605170      -0.03051677      -0.00000000      -0.01717896
X       11.15497160      11.99330511      11.30643926       0.29634844       0.57741127       0.52416425       0.55138522       1.00000000       2.00000000       1.00000000      -0.01447669      -0.06526377      -0.02605170      -0.01547276      -0.00000000       0.02804285
2
Lattice="20.0 0.0 0.0 0.0 20.0 0.0 0.0 0.0 20.0" Properties=species:S:1:pos:R:3:quaternions:R:4:c_diameter\[1\]:R:1:c_diameter\[2\]:R:1:c_diameter\[3\]:R:1:forces:R:3:torques:R:3 energy=-0.03867416635282846 pbc="F F F"
X       10.00000000      10.00000000      10.00000000      -0.58001064       0.71912484      -0.17217058       0.34176659       1.00000000       2.00000000       1.00000000       0.05023111       0.06365020       0.03080744      -0.01190161      -0.00000000      -0.00805235
X       11.48932082      11.77565565      11.27644631       0.15030657      -0.10669825       0.73862390       0.64842745       1.00000000       2.00000000       1.00000000      -0.05023111      -0.06365020      -0.03080744      -0.02574589      -0.00000000      -0.03594889
2
Lattice="20.0 0.0 0.0 0.0 20.0 0.0 0.0 0.0 20.0" Properties=species:S:1:pos:R:3:quaternions:R:4:c_diameter\[1\]:R:1:c_diameter\[2\]:R:1:c_diameter\[3\]:R:1:forces:R:3:torques:R:3 energy=-0.03854787614175554 pbc="F F F"
X       10.00000000      10.00000000      10.00000000      -0.26405352       0.57052458      -0.29836587       0.71816102       1.00000000       2.00000000       1.00000000       0.03961825       0.04726580       0.05186202       0.01350902       0.00000000      -0.04367676
X       11.95733559      11.64312202      11.49134982       0.82623382       0.30017886      -0.25795661      -0.40085997       1.00000000       2.00000000       1.00000000      -0.03961825      -0.04726580      -0.05186202       0.03671457       0.00000000      -0.01279278
2
Lattice="20.0 0.0 0.0 0.0 20.0 0.0 0.0 0.0 20.0" Properties=species:S:1:pos:R:3:quaternions:R:4:c_diameter\[1\]:R:1:c_diameter\[2\]:R:1:c_diameter\[3\]:R:1:forces:R:3:torques:R:3 energy=-0.11438548176750754 pbc="F F F"
X       10.00000000      10.00000000      10.00000000       0.62827008       0.24907017       0.71153782      -0.19223601       1.00000000       2.00000000       1.00000000       0.13900577       0.23319545       0.26103502       0.08660988      -0.00000000       0.07363176
X       11.09752918      11.51294201      11.05345462       0.66032649       0.49742392       0.45438744       0.33176864       1.00000000       2.00000000       1.00000000      -0.13900577      -0.23319545      -0.26103502      -0.12182696      -0.00000000       0.09136893
2
Lattice="20.0 0.0 0.0 0.0 20.0 0.0 0.0 0.0 20.0" Properties=species:S:1:pos:R:3:quaternions:R:4:c_diameter\[1\]:R:1:c_diameter\[2\]:R:1:c_diameter\[3\]:R:1:forces:R:3:torques:R:3 energy=-0.0508744528374181 pbc="F F F"
X       10.00000000      10.00000000      10.00000000      -0.00448792       0.91229203       0.09081358      -0.39931942       1.00000000       2.00000000       1.00000000       0.08723368       0.06084635       0.07447095      -0.05796085      -0.00000000      -0.01269553
X       11.31958401      11.33370693      11.56429171      -0.52375115       0.84778511      -0.04809987      -0.06805548       1.00000000       2.00000000       1.00000000      -0.08723368      -0.06084635      -0.07447095       0.02999008      -0.00000000       0.02869271
2
Lattice="20.0 0.0 0.0 0.0 20.0 0.0 0.0 0.0 20.0" Properties=species:S:1:pos:R:3:quaternions:R:4:c_diameter\[1\]:R:1:c_diameter\[2\]:R:1:c_diameter\[3\]:R:1:forces:R:3:torques:R:3 energy=-0.027073493886220656 pbc="F F F"
X       10.00000000      10.00000000      10.00000000       0.72039589       0.17899149      -0.19967485       0.63962627       1.00000000       2.00000000       1.00000000       0.02642800       0.03894200       0.02458110       0.00172608      -0.00000000      -0.00490712
X       11.20248495      11.89757325      11.74639085      -0.23949261      -0.42172008      -0.58193100       0.65280301       1.00000000       2.00000000       1.00000000      -0.02642800      -0.03894200      -0.02458110      -0.02658915       0.00000000      -0.01137100
2
Lattice="20.0 0.0 0.0 0.0 20.0 0.0 0.0 0.0 20.0" Properties=species:S:1:pos:R:3:quaternions:R:4:c_diameter\[1\]:R:1:c_diameter\[2\]:R:1:c_diameter\[3\]:R:1:forces:R:3:torques:R:3 energy=-0.34614057313899177 pbc="F F F"
X       10.00000000      10.00000000      10.00000000       0.49916042       0.39092305       0.73862040       0.22903700       1.00000000       2.00000000       1.00000000       0.70841243       0.56529126       1.14369384       0.23418631       0.00000000       0.60050986
X       11.04865536      11.03235213      11.74553673       0.72936699      -0.55223225      -0.32027008      -0.24594800       1.00000000       2.00000000       1.00000000      -0.70841243      -0.56529126      -1.14369384      -0.28844381      -0.00000000       0.51810436
2
Lattice="20.0 0.0 0.0 0.0 20.0 0.0 0.0 0.0 20.0" Properties=species:S:1:pos:R:3:quaternions:R:4:c_diameter\[1\]:R:1:c_diameter\[2\]:R:1:c_diameter\[3\]:R:1:forces:R:3:torques:R:3 energy=-0.016366853244855126 pbc="F F F"
X       10.00000000      10.00000000      10.00000000      -0.53624346       0.82614225       0.16229591      -0.05993303       1.00000000       2.00000000       1.00000000       0.01256689       0.01779532       0.01686704       0.01395436       0.00000000       0.00675394
X       11.75410802      11.56251281      11.93946546       0.63467549       0.53367700       0.49777379       0.25415968       1.00000000       2.00000000       1.00000000      -0.01256689      -0.01779532      -0.01686704      -0.00471461      -0.00000000       0.01023438
2
Lattice="20.0 0.0 0.0 0.0 20.0 0.0 0.0 0.0 20.0" Properties=species:S:1:pos:R:3:quaternions:R:4:c_diameter\[1\]:R:1:c_diameter\[2\]:R:1:c_diameter\[3\]:R:1:forces:R:3:torques:R:3 energy=-0.05179955072893494 pbc="F F F"
X       10.00000000      10.00000000      10.00000000      -0.15931038      -0.39752502      -0.42707376       0.79636805       1.00000000       2.00000000       1.00000000       0.09021725       0.06433085       0.03105691      -0.04771148      -0.00000000       0.01965037
X       11.54443200      11.75044834      11.38680423      -0.24587450      -0.15208438       0.77659445       0.55974739       1.00000000       2.00000000       1.00000000      -0.09021725      -0.06433085      -0.03105691      -0.03348577       0.00000000      -0.03821738
2
Lattice="20.0 0.0 0.0 0.0 20.0 0.0 0.0 0.0 20.0" Properties=species:S:1:pos:R:3:quaternions:R:4:c_diameter\[1\]:R:1:c_diameter\[2\]:R:1:c_diameter\[3\]:R:1:forces:R:3:torques:R:3 energy=-0.22778718119689834 pbc="F F F"
X       10.00000000      10.00000000      10.00000000       0.24940779       0.02323591       0.92924617       0.27158313       1.00000000       2.00000000       1.00000000       0.53465426       0.14641492       0.53510999       0.34373074      -0.00000000      -0.03300411
X       11.19181691      11.17528558      11.67108683      -0.57322121       0.03576870       0.75656556       0.31264451       1.00000000       2.00000000       1.00000000      -0.53465426      -0.14641492      -0.53510999      -0.27426543      -0.00000000      -0.21343395
2
Lattice="20.0 0.0 0.0 0.0 20.0 0.0 0.0 0.0 20.0" Properties=species:S:1:pos:R:3:quaternions:R:4:c_diameter\[1\]:R:1:c_diameter\[2\]:R:1:c_diameter\[3\]:R:1:forces:R:3:torques:R:3 energy=-0.1750983718995805 pbc="F F F"
X       10.00000000      10.00000000      10.00000000       0.99284856       0.08777911       0.01020957       0.08026416       1.00000000       2.00000000       1.00000000       0.26927916       0.16431863       0.44237133      -0.21412248      -0.00000000       0.11246199
X       11.16087718      11.47956803      11.54741498      -0.20576567      -0.65475165       0.02733561       0.72678300       1.00000000       2.00000000       1.00000000      -0.26927916      -0.16431863      -0.44237133      -0.07449209      -0.00000000       0.20341143
2
Lattice="20.0 0.0 0.0 0.0 20.0 0.0 0.0 0.0 20.0" Properties=species:S:1:pos:R:3:quaternions:R:4:c_diameter\[1\]:R:1:c_diameter\[2\]:R:1:c_diameter\[3\]:R:1:forces:R:3:torques:R:3 energy=-0.05525851942694997 pbc="F F F"
X       10.00000000      10.00000000      10.00000000      -0.03914243      -0.28181612       0.26455198       0.92144441       1.00000000       2.00000000       1.00000000       0.08638248       0.06850949       0.08994741       0.04127200       0.00000000       0.04830580
X       11.41271408      11.52041208      11.14092099       0.91022569       0.04137368       0.27584554      -0.30608276       1.00000000       2.00000000       1.00000000      -0.08638248      -0.06850949      -0.08994741       0.01524105       0.00000000       0.01882648
2
Lattice="20.0 0.0 0.0 0.0 20.0 0.0 0.0 0.0 20.0" Properties=species:S:1:pos:R:3:quaternions:R:4:c_diameter\[1\]:R:1:c_diameter\[2\]:R:1:c_diameter\[3\]:R:1:forces:R:3:torques:R:3 energy=-0.04377290820422153 pbc="F F F"
X       10.00000000      10.00000000      10.00000000      -0.19001865      -0.40088763       0.42689745       0.78799784       1.00000000       2.00000000       1.00000000       0.04247003       0.05798810       0.07160796       0.01337568       0.00000000       0.02096870
X       11.53739681      11.14393639      11.92336811      -0.05389678      -0.44261803       0.76400677      -0.46634544       1.00000000       2.00000000       1.00000000      -0.04247003      -0.05798810      -0.07160796      -0.04876775       0.00000000       0.03583462
2
Lattice="20.0 0.0 0.0 0.0 20.0 0.0 0.0 0.0 20.0" Properties=species:S:1:pos:R:3:quaternions:R:4:c_diameter\[1\]:R:1:c_diameter\[2\]:R:1:c_diameter\[3\]:R:1:forces:R:3:torques:R:3 energy=-0.04172875359940104 pbc="F F F"
X       10.00000000      10.00000000      10.00000000       0.53299497       0.75546489      -0.06568220       0.37533321       1.00000000       2.00000000       1.00000000       0.04614541       0.07226071       0.02872895       0.04717441      -0.00000000      -0.02890898
X       11.07971291      11.92849638      11.60510678       0.32420044       0.03517329       0.72126048      -0.61109756       1.00000000       2.00000000       1.00000000      -0.04614541      -0.07226071      -0.02872895      -0.04218415      -0.00000000      -0.02464169
2
Lattice="20.0 0.0 0.0 0.0 20.0 0.0 0.0 0.0 20.0" Properties=species:S:1:pos:R:3:quaternions:R:4:c_diameter\[1\]:R:1:c_diameter\[2\]:R:1:c_diameter\[3\]:R:1:forces:R:3:torques:R:3 energy=-0.03164406387678604 pbc="F F F"
X       10.00000000      10.00000000      10.00000000      -0.07112782      -0.38317390       0.80172361       0.45316426       1.00000000       2.00000000       1.00000000       0.03420010       0.04106119       0.03710958       0.00016317      -0.00000000       0.00916334
X       11.85124406      11.53435311      11.14529907      -0.26893354       0.69814490      -0.66291738      -0.02844278       1.00000000       2.00000000       1.00000000      -0.03420010      -0.04106119      -0.03710958      -0.02773353       0.00000000       0.01078210
2
Lattice="20.0 0.0 0.0 0.0 20.0 0.0 0.0 0.0 20.0" Properties=species:S:1:pos:R:3:quaternions:R:4:c_diameter\[1\]:R:1:c_diameter\[2\]:R:1:c_diameter\[3\]:R:1:forces:R:3:torques:R:3 energy=-0.024747275729447366 pbc="F F F"
X       10.00000000      10.00000000      10.00000000       0.79537535       0.02984347       0.54042747       0.27281051       1.00000000       2.00000000       1.00000000       0.02543916       0.02152987       0.03032138       0.00859889      -0.00000000       0.02034904
X       11.74613243      11.95160633      11.70065736      -0.49335973       0.79215764      -0.35175402       0.07315439       1.00000000       2.00000000       1.00000000      -0.02543916      -0.02152987      -0.03032138      -0.01054519      -0.00000000      -0.00126009
2
Lattice="20.0 0.0 0.0 0.0 20.0 0.0 0.0 0.0 20.0" Properties=species:S:1:pos:R:3:quaternions:R:4:c_diameter\[1\]:R:1:c_diameter\[2\]:R:1:c_diameter\[3\]:R:1:forces:R:3:torques:R:3 energy=-0.2313767677950138 pbc="F F F"
X       10.00000000      10.00000000      10.00000000      -0.41385147      -0.03211497       0.64897549       0.63759423       1.00000000       2.00000000       1.00000000       0.52361376       0.67462316       0.25851836      -0.15003857       0.00000000      -0.12134406
X       11.10089208      11.41947425      11.20263137      -0.40181006       0.44291205       0.67502335       0.43211232       1.00000000       2.00000000       1.00000000      -0.52361376      -0.67462316      -0.25851836      -0.26265467      -0.00000000       0.35385152
2
Lattice="20.0 0.0 0.0 0.0 20.0 0.0 0.0 0.0 20.0" Properties=species:S:1:pos:R:3:quaternions:R:4:c_diameter\[1\]:R:1:c_diameter\[2\]:R:1:c_diameter\[3\]:R:1:forces:R:3:torques:R:3 energy=-0.03621703458157011 pbc="F F F"
X       10.00000000      10.00000000      10.00000000       0.55272628      -0.53040999      -0.42744115      -0.48005517       1.00000000       2.00000000       1.00000000       0.03816657       0.05099571       0.04662661      -0.01255213       0.00000000       0.04208969
X       11.16087971      11.41885191      11.99160040      -0.10666191       0.71287783      -0.64536651      -0.25284482       1.00000000       2.00000000       1.00000000      -0.03816657      -0.05099571      -0.04662661       0.00354116      -0.00000000       0.00809100
2
Lattice="20.0 0.0 0.0 0.0 20.0 0.0 0.0 0.0 20.0" Properties=species:S:1:pos:R:3:quaternions:R:4:c_diameter\[1\]:R:1:c_diameter\[2\]:R:1:c_diameter\[3\]:R:1:forces:R:3:torques:R:3 energy=-0.10102369456245985 pbc="F F F"
X       10.00000000      10.00000000      10.00000000       0.02931793       0.98643263       0.14912877      -0.06206237       1.00000000       2.00000000       1.00000000       0.17662857       0.17666507       0.20390302      -0.11084583       0.00000000      -0.07649472
X       11.31241573      11.37453575      11.20580318       0.48307722      -0.47093305       0.63697328      -0.37299264       1.00000000       2.00000000       1.00000000      -0.17662857      -0.17666507      -0.20390302      -0.09986559      -0.00000000      -0.07120386
2
Lattice="20.0 0.0 0.0 0.0 20.0 0.0 0.0 0.0 20.0" Properties=species:S:1:pos:R:3:quaternions:R:4:c_diameter\[1\]:R:1:c_diameter\[2\]:R:1:c_diameter\[3\]:R:1:forces:R:3:torques:R:3 energy=-0.03844724761810561 pbc="F F F"
X       10.00000000      10.00000000      10.00000000       0.77670743      -0.21171769      -0.19758138       0.55934138       1.00000000       2.00000000       1.00000000       0.04922798       0.04375376       0.05153667      -0.01919616       0.00000000      -0.03659453
X       11.86029497      11.49996611      11.54837800       0.20426710       0.80128601       0.44085144      -0.34909267       1.00000000       2.00000000       1.00000000      -0.04922798      -0.04375376      -0.05153667      -0.01891935       0.00000000      -0.00780476
2
Lattice="20.0 0.0 0.0 0.0 20.0 0.0 0.0 0.0 20.0" Properties=species:S:1:pos:R:3:quaternions:R:4:c_diameter\[1\]:R:1:c_diameter\[2\]:R:1:c_diameter\[3\]:R:1:forces:R:3:torques:R:3 energy=-0.05472435119868361 pbc="F F F"
X       10.00000000      10.00000000      10.00000000       0.42539391      -0.02197602       0.61915813       0.65969712       1.00000000       2.00000000       1.00000000       0.07322265       0.10140720       0.05227251      -0.04828424      -0.00000000      -0.06472704
X       11.23901907      11.77676605      11.54927307       0.59541801      -0.38698387       0.69963583      -0.07893407       1.00000000       2.00000000       1.00000000      -0.07322265      -0.10140720      -0.05227251       0.05088801       0.00000000       0.00452713
2
Lattice="20.0 0.0 0.0 0.0 20.0 0.0 0.0 0.0 20.0" Properties=species:S:1:pos:R:3:quaternions:R:4:c_diameter\[1\]:R:1:c_diameter\[2\]:R:1:c_diameter\[3\]:R:1:forces:R:3:torques:R:3 energy=-0.03846731453261298 pbc="F F F"
X       10.00000000      10.00000000      10.00000000       0.95751000      -0.04032969       0.19643179       0.20727438       1.00000000       2.00000000       1.00000000       0.06196832       0.02457681       0.03796133      -0.02946208      -0.00000000       0.03493876
X       11.95238891      11.73453860      11.39931727       0.35255613       0.76614747      -0.02209457       0.53687435       1.00000000       2.00000000       1.00000000      -0.06196832      -0.02457681      -0.03796133       0.04422309      -0.00000000      -0.01331157
2
Lattice="20.0 0.0 0.0 0.0 20.0 0.0 0.0 0.0 20.0" Properties=species:S:1:pos:R:3:quaternions:R:4:c_diameter\[1\]:R:1:c_diameter\[2\]:R:1:c_diameter\[3\]:R:1:forces:R:3:torques:R:3 energy=-0.140385487345602 pbc="F F F"
X       10.00000000      10.00000000      10.00000000      -0.46187160       0.28405222      -0.10257656       0.83394664       1.00000000       2.00000000       1.00000000       0.31239489       0.12362153       0.30838684       0.21901754      -0.00000000      -0.09579324
X       11.56131009      11.05915606      11.62384345      -0.06472281       0.02929396       0.82826149       0.55581986       1.00000000       2.00000000       1.00000000      -0.31239489      -0.12362153      -0.30838684      -0.03484093       0.00000000      -0.23961035
2
Lattice="20.0 0.0 0.0 0.0 20.0 0.0 0.0 0.0 20.0" Properties=species:S:1:pos:R:3:quaternions:R:4:c_diameter\[1\]:R:1:c_diameter\[2\]:R:1:c_diameter\[3\]:R:1:forces:R:3:torques:R:3 energy=-0.028099528190261673 pbc="F F F"
X       10.00000000      10.00000000      10.00000000       0.96957536       0.09322232      -0.11104954      -0.19723390       1.00000000       2.00000000       1.00000000       0.03441216       0.01404935       0.03864616      -0.01707482      -0.00000000       0.01308678
X       11.46162523      11.55217263      11.82005278       0.84169834      -0.03775350       0.53603090      -0.05281530       1.00000000       2.00000000       1.00000000      -0.03441216      -0.01404935      -0.03864616       0.00521995      -0.00000000       0.02614561
2
Lattice="20.0 0.0 0.0 0.0 20.0 0.0 0.0 0.0 20.0" Properties=species:S:1:pos:R:3:quaternions:R:4:c_diameter\[1\]:R:1:c_diameter\[2\]:R:1:c_diameter\[3\]:R:1:forces:R:3:torques:R:3 energy=-0.015125532208896989 pbc="F F F"
X       10.00000000      10.00000000      10.00000000       0.28911713       0.76907248       0.28867827       0.49153196       1.00000000       2.00000000       1.00000000       0.01816986       0.01336209       0.01055560      -0.00140237       0.00000000      -0.00364665
X       11.84654774      11.60007101      11.70803200       0.56346407       0.55654359      -0.28914928       0.53773616       1.00000000       2.00000000       1.00000000      -0.01816986      -0.01336209      -0.01055560       0.01145619      -0.00000000       0.00606403
2
Lattice="20.0 0.0 0.0 0.0 20.0 0.0 0.0 0.0 20.0" Properties=species:S:1:pos:R:3:quaternions:R:4:c_diameter\[1\]:R:1:c_diameter\[2\]:R:1:c_diameter\[3\]:R:1:forces:R:3:torques:R:3 energy=-0.04022941387766032 pbc="F F F"
X       10.00000000      10.00000000      10.00000000       0.25772517       0.74831527      -0.52845012       0.30715218       1.00000000       2.00000000       1.00000000       0.05505744       0.03666003       0.05332207       0.00419613      -0.00000000       0.01838304
X       11.77751047      11.35709465      11.99087893       0.13498724       0.95770651       0.20342324       0.15230125       1.00000000       2.00000000       1.00000000      -0.05505744      -0.03666003      -0.05332207      -0.00901728      -0.00000000      -0.02701311
2
Lattice="20.0 0.0 0.0 0.0 20.0 0.0 0.0 0.0 20.0" Properties=species:S:1:pos:R:3:quaternions:R:4:c_diameter\[1\]:R:1:c_diameter\[2\]:R:1:c_diameter\[3\]:R:1:forces:R:3:torques:R:3 energy=-0.036186885163541925 pbc="F F F"
X       10.00000000      10.00000000      10.00000000       0.13373009       0.52254999       0.78739007      -0.29845376       1.00000000       2.00000000       1.00000000       0.03541496       0.05827129       0.04083267       0.02527169       0.00000000       0.00680916
X       11.68853932      11.56743924      11.41133665       0.64566723      -0.48287176       0.04193552       0.59007635       1.00000000       2.00000000       1.00000000      -0.03541496      -0.05827129      -0.04083267       0.02879135      -0.00000000      -0.03786863
2
Lattice="20.0 0.0 0.0 0.0 20.0 0.0 0.0 0.0 20.0" Properties=species:S:1:pos:R:3:quaternions:R:4:c_diameter\[1\]:R:1:c_diameter\[2\]:R:1:c_diameter\[3\]:R:1:forces:R:3:torques:R:3 energy=-0.11400413850972202 pbc="F F F"
X       10.00000000      10.00000000      10.00000000       0.80389098       0.36335143      -0.28820935       0.37238474       1.00000000       2.00000000       1.00000000       0.14464047       0.24590503       0.19632309       0.04203740       0.00000000       0.00827889
X       11.03083104      11.47468617      11.74089836       0.03465359       0.19318528       0.81347593       0.54748104       1.00000000       2.00000000       1.00000000      -0.14464047      -0.24590503      -0.19632309      -0.11335610      -0.00000000       0.01396963
2
Lattice="20.0 0.0 0.0 0.0 20.0 0.0 0.0 0.0 20.0" Properties=species:S:1:pos:R:3:quaternions:R:4:c_diameter\[1\]:R:1:c_diameter\[2\]:R:1:c_diameter\[3\]:R:1:forces:R:3:torques:R:3 energy=-0.11936948772059934 pbc="F F F"
X       10.00000000      10.00000000      10.00000000       0.31289047       0.75107756       0.09867103      -0.57292764       1.00000000       2.00000000       1.00000000       0.20590107       0.13866138       0.12644888      -0.17590394      -0.00000000      -0.04861558
X       11.84110590      11.91482896      11.53224895       0.54652574       0.12239267       0.72011694       0.40958666       1.00000000       2.00000000       1.00000000      -0.20590107      -0.13866138      -0.12644888      -0.01008783      -0.00000000       0.03054557
2
Lattice="20.0 0.0 0.0 0.0 20.0 0.0 0.0 0.0 20.0" Properties=species:S:1:pos:R:3:quaternions:R:4:c_diameter\[1\]:R:1:c_diameter\[2\]:R:1:c_diameter\[3\]:R:1:forces:R:3:torques:R:3 energy=-0.015906857616294214 pbc="F F F"
X       10.00000000      10.00000000      10.00000000      -0.61069119      -0.40662158       0.65804933       0.16937014       1.00000000       2.00000000       1.00000000       0.00888008       0.01721882       0.01937594      -0.00152010      -0.00000000       0.00121156
X       11.02131979      11.93309021      11.79296337      -0.52825558      -0.01750828       0.75824429      -0.38171338       1.00000000       2.00000000       1.00000000      -0.00888008      -0.01721882      -0.01937594       0.00338027       0.00000000      -0.00709996
2
Lattice="20.0 0.0 0.0 0.0 20.0 0.0 0.0 0.0 20.0" Properties=species:S:1:pos:R:3:quaternions:R:4:c_diameter\[1\]:R:1:c_diameter\[2\]:R:1:c_diameter\[3\]:R:1:forces:R:3:torques:R:3 energy=-0.19227666020689732 pbc="F F F"
X       10.00000000      10.00000000      10.00000000      -0.04766610      -0.52621642       0.75025412      -0.39742041       1.00000000       2.00000000       1.00000000       0.39773341       0.47654369       0.39743920      -0.20897991      -0.00000000       0.32083036
X       11.20220153      11.08619580      11.49137197      -0.61191755      -0.05867235       0.63284250       0.47077046       1.00000000       2.00000000       1.00000000      -0.39773341      -0.47654369      -0.39743920      -0.19208952      -0.00000000      -0.02648473
2
Lattice="20.0 0.0 0.0 0.0 20.0 0.0 0.0 0.0 20.0" Properties=species:S:1:pos:R:3:quaternions:R:4:c_diameter\[1\]:R:1:c_diameter\[2\]:R:1:c_diameter\[3\]:R:1:forces:R:3:torques:R:3 energy=-0.09334281695478786 pbc="F F F"
X       10.00000000      10.00000000      10.00000000      -0.33117671      -0.47225688      -0.29503269       0.76174217       1.00000000       2.00000000       1.00000000       0.14711910       0.08610460       0.15735557      -0.07113794      -0.00000000      -0.00019672
X       11.22739056      11.59772051      11.98457106       0.07070820       0.87472340       0.13044234      -0.46135032       1.00000000       2.00000000       1.00000000      -0.14711910      -0.08610460      -0.15735557      -0.14109941      -0.00000000       0.03497103
2
Lattice="20.0 0.0 0.0 0.0 20.0 0.0 0.0 0.0 20.0" Properties=species:S:1:pos:R:3:quaternions:R:4:c_diameter\[1\]:R:1:c_diameter\[2\]:R:1:c_diameter\[3\]:R:1:forces:R:3:torques:R:3 energy=-0.024394018779965918 pbc="F F F"
X       10.00000000      10.00000000      10.00000000       0.20620525       0.77135941       0.58173002      -0.15515878       1.00000000       2.00000000       1.00000000       0.01929213       0.03375044       0.02675689       0.00826728       0.00000000      -0.00022186
X       11.47215773      11.65264514      11.51780008       0.45567990       0.28975348       0.27725888       0.79468627       1.00000000       2.00000000       1.00000000      -0.01929213      -0.03375044      -0.02675689      -0.01599921      -0.00000000      -0.00956814
2
Lattice="20.0 0.0 0.0 0.0 20.0 0.0 0.0 0.0 20.0" Properties=species:S:1:pos:R:3:quaternions:R:4:c_diameter\[1\]:R:1:c_diameter\[2\]:R:1:c_diameter\[3\]:R:1:forces:R:3:torques:R:3 energy=-0.09459446109068438 pbc="F F F"
X       10.00000000      10.00000000      10.00000000      -0.43214492       0.53960289      -0.34614625       0.63424149       1.00000000       2.00000000       1.00000000       0.11265704       0.12103878       0.20413412       0.01752481      -0.00000000      -0.12452616
X       11.64957389      11.16321875      11.41946495      -0.51659970      -0.26818627       0.55613108       0.59322770       1.00000000       2.00000000       1.00000000      -0.11265704      -0.12103878      -0.20413412       0.08187772      -0.00000000       0.03712426
2
Lattice="20.0 0.0 0.0 0.0 20.0 0.0 0.0 0.0 20.0" Properties=species:S:1:pos:R:3:quaternions:R:4:c_diameter\[1\]:R:1:c_diameter\[2\]:R:1:c_diameter\[3\]:R:1:forces:R:3:torques:R:3 energy=-0.038378140442490896 pbc="F F F"
X       10.00000000      10.00000000      10.00000000       0.29503393      -0.16859928       0.73088261       0.59189515       1.00000000       2.00000000       1.00000000       0.05815113       0.04579156       0.04238723       0.00271312      -0.00000000      -0.05202901
X       11.53132526      11.31091357      11.85242882       0.00874973      -0.33497485       0.94195975      -0.02066696       1.00000000       2.00000000       1.00000000      -0.05815113      -0.04579156      -0.04238723       0.00196196      -0.00000000       0.00112657
2
Lattice="20.0 0.0 0.0 0.0 20.0 0.0 0.0 0.0 20.0" Properties=species:S:1:pos:R:3:quaternions:R:4:c_diameter\[1\]:R:1:c_diameter\[2\]:R:1:c_diameter\[3\]:R:1:forces:R:3:torques:R:3 energy=-0.05772765163884704 pbc="F F F"
X       10.00000000      10.00000000      10.00000000       0.48014618      -0.12153463       0.45631303       0.73923433       1.00000000       2.00000000       1.00000000       0.05367462       0.10290311       0.08241200      -0.04151740       0.00000000      -0.05210162
X       11.23393147      11.42033221      11.79400280      -0.50831156      -0.29351325       0.80328691      -0.10099236       1.00000000       2.00000000       1.00000000      -0.05367462      -0.10290311      -0.08241200       0.00375199      -0.00000000       0.01671086
2
Lattice="20.0 0.0 0.0 0.0 20.0 0.0 0.0 0.0 20.0" Properties=species:S:1:pos:R:3:quaternions:R:4:c_diameter\[1\]:R:1:c_diameter\[2\]:R:1:c_diameter\[3\]:R:1:forces:R:3:torques:R:3 energy=-0.11450673228442253 pbc="F F F"
X       10.00000000      10.00000000      10.00000000      -0.38607977       0.05188163       0.43941888       0.80942063       1.00000000       2.00000000       1.00000000       0.17312993       0.17443358       0.27831637       0.01911784      -0.00000000       0.03467597
X       11.38201002      11.00841146      11.30037828      -0.19301446       0.52377996       0.74355800      -0.36813242       1.00000000       2.00000000       1.00000000      -0.17312993      -0.17443358      -0.27831637       0.15567935      -0.00000000      -0.03225426
2
Lattice="20.0 0.0 0.0 0.0 20.0 0.0 0.0 0.0 20.0" Properties=species:S:1:pos:R:3:quaternions:R:4:c_diameter\[1\]:R:1:c_diameter\[2\]:R:1:c_diameter\[3\]:R:1:forces:R:3:torques:R:3 energy=-0.04394162565273004 pbc="F F F"
X       10.00000000      10.00000000      10.00000000      -0.06964191       0.83760913      -0.51933066       0.15445590       1.00000000       2.00000000       1.00000000       0.04173671       0.05088397       0.07882091      -0.06163718       0.00000000       0.00812823
X       11.50496665      11.48184191      11.59447119      -0.21911574       0.89886810       0.04373704      -0.37697679       1.00000000       2.00000000       1.00000000      -0.04173671      -0.05088397      -0.07882091      -0.01804362      -0.00000000      -0.00143027
2
Lattice="20.0 0.0 0.0 0.0 20.0 0.0 0.0 0.0 20.0" Properties=species:S:1:pos:R:3:quaternions:R:4:c_diameter\[1\]:R:1:c_diameter\[2\]:R:1:c_diameter\[3\]:R:1:forces:R:3:torques:R:3 energy=-0.033977410028389686 pbc="F F F"
X       10.00000000      10.00000000      10.00000000       0.72563191       0.09499056      -0.05810284      -0.67901339       1.00000000       2.00000000       1.00000000       0.01168008       0.05732969       0.03964069       0.03392358      -0.00000000      -0.00916267
X       11.10181841      11.75325944      11.69744161       0.18956643      -0.27702487       0.79988477      -0.49749989       1.00000000       2.00000000       1.00000000      -0.01168008      -0.05732969      -0.03964069      -0.03294696      -0.00000000       0.01711533
2
Lattice="20.0 0.0 0.0 0.0 20.0 0.0 0.0 0.0 20.0" Properties=species:S:1:pos:R:3:quaternions:R:4:c_diameter\[1\]:R:1:c_diameter\[2\]:R:1:c_diameter\[3\]:R:1:forces:R:3:torques:R:3 energy=-0.05572229010866367 pbc="F F F"
X       10.00000000      10.00000000      10.00000000       0.06895771       0.83379441      -0.15087837       0.52656190       1.00000000       2.00000000       1.00000000       0.08036970       0.01068327       0.09883100       0.04651021      -0.00000000      -0.05528528
X       11.65554335      11.08697783      11.76102432       0.92316075       0.06316371      -0.25689611       0.27890673       1.00000000       2.00000000       1.00000000      -0.08036970      -0.01068327      -0.09883100      -0.06268787      -0.00000000      -0.02562332
2
Lattice="20.0 0.0 0.0 0.0 20.0 0.0 0.0 0.0 20.0" Properties=species:S:1:pos:R:3:quaternions:R:4:c_diameter\[1\]:R:1:c_diameter\[2\]:R:1:c_diameter\[3\]:R:1:forces:R:3:torques:R:3 energy=-0.027188443747674637 pbc="F F F"
X       10.00000000      10.00000000      10.00000000       0.14895724       0.26879937       0.33714772       0.88988205       1.00000000       2.00000000       1.00000000       0.03200836       0.03556281       0.02347634      -0.00213246       0.00000000      -0.00294433
X       11.59834014      11.68843325      11.18492902       0.92423657       0.15567724       0.16353092      -0.30791071       1.00000000       2.00000000       1.00000000      -0.03200836      -0.03556281      -0.02347634       0.00235181       0.00000000      -0.00016109
2
Lattice="20.0 0.0 0.0 0.0 20.0 0.0 0.0 0.0 20.0" Properties=species:S:1:pos:R:3:quaternions:R:4:c_diameter\[1\]:R:1:c_diameter\[2\]:R:1:c_diameter\[3\]:R:1:forces:R:3:torques:R:3 energy=-0.030574102109809705 pbc="F F F"
X       10.00000000      10.00000000      10.00000000       0.69769431       0.00346273      -0.29815317       0.65139492       1.00000000       2.00000000       1.00000000       0.02218709       0.04378479       0.04124458      -0.00035674       0.00000000      -0.02742060
X       11.26008621      11.94116087      11.20019036      -0.15314105       0.11924607       0.35741440       0.91355522       1.00000000       2.00000000       1.00000000      -0.02218709      -0.04378479      -0.04124458       0.02131478      -0.00000000       0.01098596
2
Lattice="20.0 0.0 0.0 0.0 20.0 0.0 0.0 0.0 20.0" Properties=species:S:1:pos:R:3:quaternions:R:4:c_diameter\[1\]:R:1:c_diameter\[2\]:R:1:c_diameter\[3\]:R:1:forces:R:3:torques:R:3 energy=-0.037950339648589015 pbc="F F F"
X       10.00000000      10.00000000      10.00000000       0.76215456       0.63964718       0.09383576      -0.03415793       1.00000000       2.00000000       1.00000000       0.05774284       0.04097128       0.02732651       0.03510907      -0.00000000      -0.02768349
X       11.64108607      11.59975423      11.78276082       0.86510341      -0.44940588       0.20763126       0.08074473       1.00000000       2.00000000       1.00000000      -0.05774284      -0.04097128      -0.02732651       0.01027414      -0.00000000       0.04521355
2
Lattice="20.0 0.0 0.0 0.0 20.0 0.0 0.0 0.0 20.0" Properties=species:S:1:pos:R:3:quaternions:R:4:c_diameter\[1\]:R:1:c_diameter\[2\]:R:1:c_diameter\[3\]:R:1:forces:R:3:torques:R:3 energy=-0.11636839081804647 pbc="F F F"
X       10.00000000      10.00000000      10.00000000       0.64436093       0.29920685      -0.32595097       0.62372286       1.00000000       2.00000000       1.00000000       0.22633972       0.12248451       0.29973656       0.09336483      -0.00000000       0.01763558
X       11.07707321      11.05172029      11.55712516       0.91327320       0.11099705       0.36251815       0.14897083       1.00000000       2.00000000       1.00000000      -0.22633972      -0.12248451      -0.29973656      -0.03920734      -0.00000000       0.18024252
2
Lattice="20.0 0.0 0.0 0.0 20.0 0.0 0.0 0.0 20.0" Properties=species:S:1:pos:R:3:quaternions:R:4:c_diameter\[1\]:R:1:c_diameter\[2\]:R:1:c_diameter\[3\]:R:1:forces:R:3:torques:R:3 energy=-0.10689174416586764 pbc="F F F"
X       10.00000000      10.00000000      10.00000000       0.62161473       0.30902264       0.71519468      -0.08122007       1.00000000       2.00000000       1.00000000       0.20575359       0.09030217       0.20832879       0.04799664      -0.00000000       0.11983433
X       11.52886178      11.39818765      11.17792477       0.97283614       0.03559766       0.21112491       0.08802800       1.00000000       2.00000000       1.00000000      -0.20575359      -0.09030217      -0.20832879      -0.00972620       0.00000000       0.15298622
2
Lattice="20.0 0.0 0.0 0.0 20.0 0.0 0.0 0.0 20.0" Properties=species:S:1:pos:R:3:quaternions:R:4:c_diameter\[1\]:R:1:c_diameter\[2\]:R:1:c_diameter\[3\]:R:1:forces:R:3:torques:R:3 energy=-0.027506456562520785 pbc="F F F"
X       10.00000000      10.00000000      10.00000000       0.74450311      -0.04211203      -0.28742010      -0.60110846       1.00000000       2.00000000       1.00000000       0.02746095       0.04507249       0.02038370       0.01083158      -0.00000000      -0.00286948
X       11.58201239      11.74789168      11.21045816       0.04629605       0.40322088       0.59554928       0.69324646       1.00000000       2.00000000       1.00000000      -0.02746095      -0.04507249      -0.02038370      -0.02750370      -0.00000000       0.00150226
2
Lattice="20.0 0.0 0.0 0.0 20.0 0.0 0.0 0.0 20.0" Properties=species:S:1:pos:R:3:quaternions:R:4:c_diameter\[1\]:R:1:c_diameter\[2\]:R:1:c_diameter\[3\]:R:1:forces:R:3:torques:R:3 energy=-0.08905291038786256 pbc="F F F"
X       10.00000000      10.00000000      10.00000000       0.75003817      -0.28182828      -0.35122357      -0.48441466       1.00000000       2.00000000       1.00000000       0.18174867       0.12541154       0.15667138      -0.07437161      -0.00000000       0.02917442
X       11.42476208      11.09444534      11.25390517       0.15085414       0.62890980       0.71572772      -0.26353239       1.00000000       2.00000000       1.00000000      -0.18174867      -0.12541154      -0.15667138       0.07007192       0.00000000       0.00977206
2
Lattice="20.0 0.0 0.0 0.0 20.0 0.0 0.0 0.0 20.0" Properties=species:S:1:pos:R:3:quaternions:R:4:c_diameter\[1\]:R:1:c_diameter\[2\]:R:1:c_diameter\[3\]:R:1:forces:R:3:torques:R:3 energy=-0.02432853877694146 pbc="F F F"
X       10.00000000      10.00000000      10.00000000       0.44753481       0.33981396       0.06347281       0.82474861       1.00000000       2.00000000       1.00000000       0.02099629       0.03316810       0.02182818      -0.01266347      -0.00000000       0.00143578
X       11.88636342      11.60288122      11.52300711       0.71435846       0.46921982      -0.35233083      -0.38129745       1.00000000       2.00000000       1.00000000      -0.02099629      -0.03316810      -0.02182818       0.02376801      -0.00000000      -0.00547125
2
Lattice="20.0 0.0 0.0 0.0 20.0 0.0 0.0 0.0 20.0" Properties=species:S:1:pos:R:3:quaternions:R:4:c_diameter\[1\]:R:1:c_diameter\[2\]:R:1:c_diameter\[3\]:R:1:forces:R:3:torques:R:3 energy=-0.08470840190668147 pbc="F F F"
X       10.00000000      10.00000000      10.00000000       0.57218052       0.27938377       0.57583312      -0.51280637       1.00000000       2.00000000       1.00000000       0.16971367       0.14523947       0.11563222      -0.11287554       0.00000000      -0.05524367
X       11.45031097      11.02966227      11.43911052      -0.41032802      -0.22052294       0.88388924      -0.04171752       1.00000000       2.00000000       1.00000000      -0.16971367      -0.14523947      -0.11563222      -0.02501517       0.00000000       0.00242670
2
Lattice="20.0 0.0 0.0 0.0 20.0 0.0 0.0 0.0 20.0" Properties=species:S:1:pos:R:3:quaternions:R:4:c_diameter\[1\]:R:1:c_diameter\[2\]:R:1:c_diameter\[3\]:R:1:forces:R:3:torques:R:3 energy=-0.1540498684528371 pbc="F F F"
X       10.00000000      10.00000000      10.00000000      -0.30132242      -0.45751831      -0.18334510       0.81625141       1.00000000       2.00000000       1.00000000       0.11748973       0.17649389       0.37395650      -0.01825303      -0.00000000       0.13947529
X       11.10024786      11.65026459      11.91321024      -0.13976550       0.41604708       0.89852886       0.00403969       1.00000000       2.00000000       1.00000000      -0.11748973      -0.17649389      -0.37395650       0.27367674      -0.00000000       0.01912343
2
Lattice="20.0 0.0 0.0 0.0 20.0 0.0 0.0 0.0 20.0" Properties=species:S:1:pos:R:3:quaternions:R:4:c_diameter\[1\]:R:1:c_diameter\[2\]:R:1:c_diameter\[3\]:R:1:forces:R:3:torques:R:3 energy=-0.42828904068637424 pbc="F F F"
X       10.00000000      10.00000000      10.00000000      -0.31411133      -0.04442862      -0.28804610       0.90354281       1.00000000       2.00000000       1.00000000       1.01075685       0.87684760       0.74179637      -0.09914108      -0.00000000       0.38668693
X       11.86595253      11.35090080      11.23541051      -0.60798543      -0.37894412       0.10336430       0.68997891       1.00000000       2.00000000       1.00000000      -1.01075685      -0.87684760      -0.74179637       0.67239375      -0.00000000      -0.20417527
2
Lattice="20.0 0.0 0.0 0.0 20.0 0.0 0.0 0.0 20.0" Properties=species:S:1:pos:R:3:quaternions:R:4:c_diameter\[1\]:R:1:c_diameter\[2\]:R:1:c_diameter\[3\]:R:1:forces:R:3:torques:R:3 energy=-0.015772196488298116 pbc="F F F"
X       10.00000000      10.00000000      10.00000000      -0.35101360       0.85773222       0.32980493      -0.17975982       1.00000000       2.00000000       1.00000000       0.01731027       0.01360978       0.01391482       0.01023569       0.00000000       0.00722156
X       11.91776603      11.48475826      11.93337148       0.77232515      -0.30063755       0.55930488      -0.01757798       1.00000000       2.00000000       1.00000000      -0.01731027      -0.01360978      -0.01391482       0.01028924       0.00000000       0.00582346
2
Lattice="20.0 0.0 0.0 0.0 20.0 0.0 0.0 0.0 20.0" Properties=species:S:1:pos:R:3:quaternions:R:4:c_diameter\[1\]:R:1:c_diameter\[2\]:R:1:c_diameter\[3\]:R:1:forces:R:3:torques:R:3 energy=-0.19486128021997096 pbc="F F F"
X       10.00000000      10.00000000      10.00000000       0.35308396       0.79420577       0.41267375       0.27252393       1.00000000       2.00000000       1.00000000       0.45824764       0.53008693       0.33589629      -0.05006519       0.00000000      -0.01718005
X       11.00624554      11.20159367      11.23975947       0.38404696       0.32104841      -0.57694837       0.64541957       1.00000000       2.00000000       1.00000000      -0.45824764      -0.53008693      -0.33589629       0.02586863      -0.00000000       0.34864134
2
Lattice="20.0 0.0 0.0 0.0 20.0 0.0 0.0 0.0 20.0" Properties=species:S:1:pos:R:3:quaternions:R:4:c_diameter\[1\]:R:1:c_diameter\[2\]:R:1:c_diameter\[3\]:R:1:forces:R:3:torques:R:3 energy=-0.26416781384758997 pbc="F F F"
X       10.00000000      10.00000000      10.00000000       0.81761763      -0.21832535      -0.53274928      -0.00369392       1.00000000       2.00000000       1.00000000       0.57656015       0.24639589       0.54586072      -0.36486221      -0.00000000      -0.13201348
X       11.33316034      11.60650811      11.51509677       0.21700005       0.82019383       0.04513440      -0.52740491       1.00000000       2.00000000       1.00000000      -0.57656015      -0.24639589      -0.54586072      -0.40232779       0.00000000       0.05191691
2
Lattice="20.0 0.0 0.0 0.0 20.0 0.0 0.0 0.0 20.0" Properties=species:S:1:pos:R:3:quaternions:R:4:c_diameter\[1\]:R:1:c_diameter\[2\]:R:1:c_diameter\[3\]:R:1:forces:R:3:torques:R:3 energy=-0.9372432646154799 pbc="F F F"
X       10.00000000      10.00000000      10.00000000      -0.49425153      -0.27370218       0.00247836       0.82510387       1.00000000       2.00000000       1.00000000       0.91864772       2.61793468       3.41796330       1.92756667      -0.00000000       0.13292324
X       11.25993977      11.26375463      11.36783876       0.35451584       0.78363540      -0.46043846      -0.21961445       1.00000000       2.00000000       1.00000000      -0.91864772      -2.61793468      -3.41796330       0.11653437       0.00000000       1.98784507
2
Lattice="20.0 0.0 0.0 0.0 20.0 0.0 0.0 0.0 20.0" Properties=species:S:1:pos:R:3:quaternions:R:4:c_diameter\[1\]:R:1:c_diameter\[2\]:R:1:c_diameter\[3\]:R:1:forces:R:3:torques:R:3 energy=-0.15604205329124204 pbc="F F F"
X       10.00000000      10.00000000      10.00000000       0.86614180      -0.34783376      -0.32569533       0.15077335       1.00000000       2.00000000       1.00000000       0.28618086       0.15993356       0.31574160      -0.15869276      -0.00000000       0.08683384
X       11.81548888      11.44333255      11.38787048       0.72785576      -0.17886318      -0.48025508       0.45561938       1.00000000       2.00000000       1.00000000      -0.28618086      -0.15993356      -0.31574160      -0.10081660       0.00000000      -0.26170895
2
Lattice="20.0 0.0 0.0 0.0 20.0 0.0 0.0 0.0 20.0" Properties=species:S:1:pos:R:3:quaternions:R:4:c_diameter\[1\]:R:1:c_diameter\[2\]:R:1:c_diameter\[3\]:R:1:forces:R:3:torques:R:3 energy=-0.1406959374875232 pbc="F F F"
X       10.00000000      10.00000000      10.00000000       0.42086010       0.21072083      -0.54581647       0.69322283       1.00000000       2.00000000       1.00000000       0.36888968       0.23823643       0.10546104       0.02834363       0.00000000       0.08802732
X       11.63023623      11.27901029      11.11655952       0.67468053      -0.49550406      -0.51578856      -0.18232957       1.00000000       2.00000000       1.00000000      -0.36888968      -0.23823643      -0.10546104      -0.12116357      -0.00000000       0.14719636
2
Lattice="20.0 0.0 0.0 0.0 20.0 0.0 0.0 0.0 20.0" Properties=species:S:1:pos:R:3:quaternions:R:4:c_diameter\[1\]:R:1:c_diameter\[2\]:R:1:c_diameter\[3\]:R:1:forces:R:3:torques:R:3 energy=-0.04741241050410151 pbc="F F F"
X       10.00000000      10.00000000      10.00000000       0.07715399       0.95547651       0.09388675       0.26888136       1.00000000       2.00000000       1.00000000       0.04921435       0.05539654       0.09111231      -0.02378225      -0.00000000      -0.05567313
X       11.05646461      11.58241870      11.61871632      -0.34406566      -0.51893209       0.57914398       0.52623242       1.00000000       2.00000000       1.00000000      -0.04921435      -0.05539654      -0.09111231       0.00801577       0.00000000       0.03418187
2
Lattice="20.0 0.0 0.0 0.0 20.0 0.0 0.0 0.0 20.0" Properties=species:S:1:pos:R:3:quaternions:R:4:c_diameter\[1\]:R:1:c_diameter\[2\]:R:1:c_diameter\[3\]:R:1:forces:R:3:torques:R:3 energy=-0.7297411983590785 pbc="F F F"
X       10.00000000      10.00000000      10.00000000       0.32589367       0.30885360      -0.60276952       0.65959964       1.00000000       2.00000000       1.00000000       1.92993675       3.14041876       1.29442170       0.13688758      -0.00000000       1.41234301
X       11.19249315      11.13049832      11.05555178      -0.45853820       0.68222710       0.54439100      -0.16717457       1.00000000       2.00000000       1.00000000      -1.92993675      -3.14041876      -1.29442170       1.78693875      -0.00000000       0.73811933
2
Lattice="20.0 0.0 0.0 0.0 20.0 0.0 0.0 0.0 20.0" Properties=species:S:1:pos:R:3:quaternions:R:4:c_diameter\[1\]:R:1:c_diameter\[2\]:R:1:c_diameter\[3\]:R:1:forces:R:3:torques:R:3 energy=-0.06496613104648737 pbc="F F F"
X       10.00000000      10.00000000      10.00000000      -0.53743854       0.68696641       0.29089111       0.39321665       1.00000000       2.00000000       1.00000000       0.08615623       0.09600203       0.09582741      -0.00697627       0.00000000       0.07331685
X       11.50101765      11.60691433      11.74181176       0.12370040       0.91665108      -0.35372687       0.13901913       1.00000000       2.00000000       1.00000000      -0.08615623      -0.09600203      -0.09582741      -0.05531882       0.00000000      -0.01414679
2
Lattice="20.0 0.0 0.0 0.0 20.0 0.0 0.0 0.0 20.0" Properties=species:S:1:pos:R:3:quaternions:R:4:c_diameter\[1\]:R:1:c_diameter\[2\]:R:1:c_diameter\[3\]:R:1:forces:R:3:torques:R:3 energy=-0.025039015666686818 pbc="F F F"
X       10.00000000      10.00000000      10.00000000      -0.55441040       0.56068457      -0.52366651      -0.32254504       1.00000000       2.00000000       1.00000000       0.01854790       0.03669740       0.02597527       0.02271282       0.00000000      -0.01860864
X       11.01106615      11.81527936      11.97132063       0.31782541      -0.55696475       0.70815757      -0.29544902       1.00000000       2.00000000       1.00000000      -0.01854790      -0.03669740      -0.02597527      -0.01310351      -0.00000000       0.00253291
2
Lattice="20.0 0.0 0.0 0.0 20.0 0.0 0.0 0.0 20.0" Properties=species:S:1:pos:R:3:quaternions:R:4:c_diameter\[1\]:R:1:c_diameter\[2\]:R:1:c_diameter\[3\]:R:1:forces:R:3:torques:R:3 energy=-0.151737898605137 pbc="F F F"
X       10.00000000      10.00000000      10.00000000      -0.33849841       0.29112733       0.20863764       0.87013450       1.00000000       2.00000000       1.00000000       0.19524877       0.33682528       0.41634773       0.08845073      -0.00000000      -0.05090429
X       11.06026441      11.02759168      11.39885182       0.54046114      -0.50760525      -0.10703421       0.66240648       1.00000000       2.00000000       1.00000000      -0.19524877      -0.33682528      -0.41634773       0.06180691      -0.00000000      -0.22353403
2
Lattice="20.0 0.0 0.0 0.0 20.0 0.0 0.0 0.0 20.0" Properties=species:S:1:pos:R:3:quaternions:R:4:c_diameter\[1\]:R:1:c_diameter\[2\]:R:1:c_diameter\[3\]:R:1:forces:R:3:torques:R:3 energy=-0.08731596836850625 pbc="F F F"
X       10.00000000      10.00000000      10.00000000      -0.15772550       0.16657372      -0.66636927       0.70945603       1.00000000       2.00000000       1.00000000       0.15345723       0.15415545       0.10847425      -0.11326528       0.00000000       0.07528425
X       11.95302155      11.32368086      11.18362125       0.82015033       0.27398704       0.11327323       0.48934008       1.00000000       2.00000000       1.00000000      -0.15345723      -0.15415545      -0.10847425      -0.13492042       0.00000000       0.01204730
2
Lattice="20.0 0.0 0.0 0.0 20.0 0.0 0.0 0.0 20.0" Properties=species:S:1:pos:R:3:quaternions:R:4:c_diameter\[1\]:R:1:c_diameter\[2\]:R:1:c_diameter\[3\]:R:1:forces:R:3:torques:R:3 energy=-0.018376853707113783 pbc="F F F"
X       10.00000000      10.00000000      10.00000000       0.42077503      -0.45799277      -0.35047033       0.70025820       1.00000000       2.00000000       1.00000000       0.01705318       0.02191901       0.01719946       0.00322947       0.00000000      -0.01267529
X       11.81456870      11.46504115      11.59167109      -0.42684422       0.88040215       0.05667059      -0.19870707       1.00000000       2.00000000       1.00000000      -0.01705318      -0.02191901      -0.01719946       0.00896261      -0.00000000       0.00711408
2
Lattice="20.0 0.0 0.0 0.0 20.0 0.0 0.0 0.0 20.0" Properties=species:S:1:pos:R:3:quaternions:R:4:c_diameter\[1\]:R:1:c_diameter\[2\]:R:1:c_diameter\[3\]:R:1:forces:R:3:torques:R:3 energy=-0.12308027483719314 pbc="F F F"
X       10.00000000      10.00000000      10.00000000      -0.32450555       0.52337787      -0.20351809       0.76115185       1.00000000       2.00000000       1.00000000       0.23934339       0.13787497       0.28763460       0.07955470      -0.00000000      -0.18491975
X       11.62118890      11.07504635      11.27462008       0.43420827       0.05429457       0.86250401      -0.25416947       1.00000000       2.00000000       1.00000000      -0.23934339      -0.13787497      -0.28763460       0.01921846      -0.00000000      -0.02820779
2
Lattice="20.0 0.0 0.0 0.0 20.0 0.0 0.0 0.0 20.0" Properties=species:S:1:pos:R:3:quaternions:R:4:c_diameter\[1\]:R:1:c_diameter\[2\]:R:1:c_diameter\[3\]:R:1:forces:R:3:torques:R:3 energy=-0.3952064738398833 pbc="F F F"
X       10.00000000      10.00000000      10.00000000      -0.08450940       0.67599943      -0.64508672       0.34604343       1.00000000       2.00000000       1.00000000       0.30467024       1.24585687       1.10887056      -0.70468240      -0.00000000       0.42694540
X       11.08350209      11.52298694      11.06130293       0.80220098      -0.08322122      -0.43861216       0.39644316       1.00000000       2.00000000       1.00000000      -0.30467024      -1.24585687      -1.10887056      -0.35460684      -0.00000000      -0.73500504
