2
Lattice="20.0 0.0 0.0 0.0 20.0 0.0 0.0 0.0 20.0" Properties=species:S:1:pos:R:3:quaternions:R:4:c_diameter\[1\]:R:1:c_diameter\[2\]:R:1:c_diameter\[3\]:R:1:forces:R:3:torques:R:3 separation_distance=2.048132843587389 energy=-0.8324409188118315 pbc="F F F"
X       10.00000000      10.00000000      10.00000000       1.00000000       0.00000000       0.00000000       0.00000000       1.00000000       1.50000000       2.00000000      -9.85837896       0.00000000       0.00000000      -0.00000000      -0.00000000      -0.00000000
X       12.04813284      10.00000000      10.00000000       1.00000000       0.00000000       0.00000000       0.00000000       1.00000000       1.50000000       2.00000000       9.85837896      -0.00000000      -0.00000000      -0.00000000      -0.00000000      -0.00000000
2
Lattice="20.0 0.0 0.0 0.0 20.0 0.0 0.0 0.0 20.0" Properties=species:S:1:pos:R:3:quaternions:R:4:c_diameter\[1\]:R:1:c_diameter\[2\]:R:1:c_diameter\[3\]:R:1:forces:R:3:torques:R:3 separation_distance=2.068411386593205 energy=-0.9893511651139665 pbc="F F F"
X       10.00000000      10.00000000      10.00000000       1.00000000       0.00000000       0.00000000       0.00000000       1.00000000       1.50000000       2.00000000      -5.84301262       0.00000000       0.00000000      -0.00000000      -0.00000000      -0.00000000
X       12.06841139      10.00000000      10.00000000       1.00000000       0.00000000       0.00000000       0.00000000       1.00000000       1.50000000       2.00000000       5.84301262      -0.00000000      -0.00000000      -0.00000000      -0.00000000      -0.00000000
2
Lattice="20.0 0.0 0.0 0.0 20.0 0.0 0.0 0.0 20.0" Properties=species:S:1:pos:R:3:quaternions:R:4:c_diameter\[1\]:R:1:c_diameter\[2\]:R:1:c_diameter\[3\]:R:1:forces:R:3:torques:R:3 separation_distance=2.088689929599021 energy=-1.0772481789486734 pbc="F F F"
X       10.00000000      10.00000000      10.00000000       1.00000000       0.00000000       0.00000000       0.00000000       1.00000000       1.50000000       2.00000000      -2.99022446       0.00000000       0.00000000      -0.00000000      -0.00000000      -0.00000000
X       12.08868993      10.00000000      10.00000000       1.00000000       0.00000000       0.00000000       0.00000000       1.00000000       1.50000000       2.00000000       2.99022446      -0.00000000      -0.00000000      -0.00000000      -0.00000000      -0.00000000
2
Lattice="20.0 0.0 0.0 0.0 20.0 0.0 0.0 0.0 20.0" Properties=species:S:1:pos:R:3:quaternions:R:4:c_diameter\[1\]:R:1:c_diameter\[2\]:R:1:c_diameter\[3\]:R:1:forces:R:3:torques:R:3 separation_distance=2.1089684726048366 energy=-1.1163233002055648 pbc="F F F"
X       10.00000000      10.00000000      10.00000000       1.00000000       0.00000000       0.00000000       0.00000000       1.00000000       1.50000000       2.00000000      -0.98314331       0.00000000       0.00000000      -0.00000000      -0.00000000      -0.00000000
X       12.10896847      10.00000000      10.00000000       1.00000000       0.00000000       0.00000000       0.00000000       1.00000000       1.50000000       2.00000000       0.98314331      -0.00000000      -0.00000000      -0.00000000      -0.00000000      -0.00000000
2
Lattice="20.0 0.0 0.0 0.0 20.0 0.0 0.0 0.0 20.0" Properties=species:S:1:pos:R:3:quaternions:R:4:c_diameter\[1\]:R:1:c_diameter\[2\]:R:1:c_diameter\[3\]:R:1:forces:R:3:torques:R:3 separation_distance=2.129247015610652 energy=-1.1212668851493959 pbc="F F F"
X       10.00000000      10.00000000      10.00000000       1.00000000       0.00000000       0.00000000       0.00000000       1.00000000       1.50000000       2.00000000       0.40863492       0.00000000       0.00000000      -0.00000000      -0.00000000      -0.00000000
X       12.12924702      10.00000000      10.00000000       1.00000000       0.00000000       0.00000000       0.00000000       1.00000000       1.50000000       2.00000000      -0.40863492      -0.00000000      -0.00000000      -0.00000000      -0.00000000      -0.00000000
2
Lattice="20.0 0.0 0.0 0.0 20.0 0.0 0.0 0.0 20.0" Properties=species:S:1:pos:R:3:quaternions:R:4:c_diameter\[1\]:R:1:c_diameter\[2\]:R:1:c_diameter\[3\]:R:1:forces:R:3:torques:R:3 separation_distance=2.149525558616468 energy=-1.1027634744374821 pbc="F F F"
X       10.00000000      10.00000000      10.00000000       1.00000000       0.00000000       0.00000000       0.00000000       1.00000000       1.50000000       2.00000000       1.35315221       0.00000000       0.00000000      -0.00000000      -0.00000000      -0.00000000
X       12.14952556      10.00000000      10.00000000       1.00000000       0.00000000       0.00000000       0.00000000       1.00000000       1.50000000       2.00000000      -1.35315221      -0.00000000      -0.00000000      -0.00000000      -0.00000000      -0.00000000
2
Lattice="20.0 0.0 0.0 0.0 20.0 0.0 0.0 0.0 20.0" Properties=species:S:1:pos:R:3:quaternions:R:4:c_diameter\[1\]:R:1:c_diameter\[2\]:R:1:c_diameter\[3\]:R:1:forces:R:3:torques:R:3 separation_distance=2.1698041016222835 energy=-1.0685723942738767 pbc="F F F"
X       10.00000000      10.00000000      10.00000000       1.00000000       0.00000000       0.00000000       0.00000000       1.00000000       1.50000000       2.00000000       1.97327760       0.00000000       0.00000000      -0.00000000      -0.00000000      -0.00000000
X       12.16980410      10.00000000      10.00000000       1.00000000       0.00000000       0.00000000       0.00000000       1.00000000       1.50000000       2.00000000      -1.97327760      -0.00000000      -0.00000000      -0.00000000      -0.00000000      -0.00000000
2
Lattice="20.0 0.0 0.0 0.0 20.0 0.0 0.0 0.0 20.0" Properties=species:S:1:pos:R:3:quaternions:R:4:c_diameter\[1\]:R:1:c_diameter\[2\]:R:1:c_diameter\[3\]:R:1:forces:R:3:torques:R:3 separation_distance=2.1900826446280997 energy=-1.0243120111019237 pbc="F F F"
X       10.00000000      10.00000000      10.00000000       1.00000000       0.00000000       0.00000000       0.00000000       1.00000000       1.50000000       2.00000000       2.35902746       0.00000000       0.00000000      -0.00000000      -0.00000000      -0.00000000
X       12.19008264      10.00000000      10.00000000       1.00000000       0.00000000       0.00000000       0.00000000       1.00000000       1.50000000       2.00000000      -2.35902746      -0.00000000      -0.00000000      -0.00000000      -0.00000000      -0.00000000
2
Lattice="20.0 0.0 0.0 0.0 20.0 0.0 0.0 0.0 20.0" Properties=species:S:1:pos:R:3:quaternions:R:4:c_diameter\[1\]:R:1:c_diameter\[2\]:R:1:c_diameter\[3\]:R:1:forces:R:3:torques:R:3 separation_distance=2.2103611876339153 energy=-0.9740310917349673 pbc="F F F"
X       10.00000000      10.00000000      10.00000000       1.00000000       0.00000000       0.00000000       0.00000000       1.00000000       1.50000000       2.00000000       2.57643864       0.00000000       0.00000000      -0.00000000      -0.00000000      -0.00000000
X       12.21036119      10.00000000      10.00000000       1.00000000       0.00000000       0.00000000       0.00000000       1.00000000       1.50000000       2.00000000      -2.57643864      -0.00000000      -0.00000000      -0.00000000      -0.00000000      -0.00000000
2
Lattice="20.0 0.0 0.0 0.0 20.0 0.0 0.0 0.0 20.0" Properties=species:S:1:pos:R:3:quaternions:R:4:c_diameter\[1\]:R:1:c_diameter\[2\]:R:1:c_diameter\[3\]:R:1:forces:R:3:torques:R:3 separation_distance=2.230639730639731 energy=-0.9206265030056118 pbc="F F F"
X       10.00000000      10.00000000      10.00000000       1.00000000       0.00000000       0.00000000       0.00000000       1.00000000       1.50000000       2.00000000       2.67398795       0.00000000       0.00000000      -0.00000000      -0.00000000      -0.00000000
X       12.23063973      10.00000000      10.00000000       1.00000000       0.00000000       0.00000000       0.00000000       1.00000000       1.50000000       2.00000000      -2.67398795      -0.00000000      -0.00000000      -0.00000000      -0.00000000      -0.00000000
2
Lattice="20.0 0.0 0.0 0.0 20.0 0.0 0.0 0.0 20.0" Properties=species:S:1:pos:R:3:quaternions:R:4:c_diameter\[1\]:R:1:c_diameter\[2\]:R:1:c_diameter\[3\]:R:1:forces:R:3:torques:R:3 separation_distance=2.2509182736455466 energy=-0.8661495162166426 pbc="F F F"
X       10.00000000      10.00000000      10.00000000       1.00000000       0.00000000       0.00000000       0.00000000       1.00000000       1.50000000       2.00000000       2.68725622       0.00000000       0.00000000      -0.00000000      -0.00000000      -0.00000000
X       12.25091827      10.00000000      10.00000000       1.00000000       0.00000000       0.00000000       0.00000000       1.00000000       1.50000000       2.00000000      -2.68725622      -0.00000000      -0.00000000      -0.00000000      -0.00000000      -0.00000000
2
Lattice="20.0 0.0 0.0 0.0 20.0 0.0 0.0 0.0 20.0" Properties=species:S:1:pos:R:3:quaternions:R:4:c_diameter\[1\]:R:1:c_diameter\[2\]:R:1:c_diameter\[3\]:R:1:forces:R:3:torques:R:3 separation_distance=2.2711968166513623 energy=-0.8120310246182416 pbc="F F F"
X       10.00000000      10.00000000      10.00000000       1.00000000       0.00000000       0.00000000       0.00000000       1.00000000       1.50000000       2.00000000       2.64233038       0.00000000       0.00000000      -0.00000000      -0.00000000      -0.00000000
X       12.27119682      10.00000000      10.00000000       1.00000000       0.00000000       0.00000000       0.00000000       1.00000000       1.50000000       2.00000000      -2.64233038      -0.00000000      -0.00000000      -0.00000000      -0.00000000      -0.00000000
2
Lattice="20.0 0.0 0.0 0.0 20.0 0.0 0.0 0.0 20.0" Properties=species:S:1:pos:R:3:quaternions:R:4:c_diameter\[1\]:R:1:c_diameter\[2\]:R:1:c_diameter\[3\]:R:1:forces:R:3:torques:R:3 separation_distance=2.291475359657178 energy=-0.7592475108573611 pbc="F F F"
X       10.00000000      10.00000000      10.00000000       1.00000000       0.00000000       0.00000000       0.00000000       1.00000000       1.50000000       2.00000000       2.55829399       0.00000000       0.00000000      -0.00000000      -0.00000000      -0.00000000
X       12.29147536      10.00000000      10.00000000       1.00000000       0.00000000       0.00000000       0.00000000       1.00000000       1.50000000       2.00000000      -2.55829399      -0.00000000      -0.00000000      -0.00000000      -0.00000000      -0.00000000
2
Lattice="20.0 0.0 0.0 0.0 20.0 0.0 0.0 0.0 20.0" Properties=species:S:1:pos:R:3:quaternions:R:4:c_diameter\[1\]:R:1:c_diameter\[2\]:R:1:c_diameter\[3\]:R:1:forces:R:3:torques:R:3 separation_distance=2.3117539026629936 energy=-0.7084435684979397 pbc="F F F"
X       10.00000000      10.00000000      10.00000000       1.00000000       0.00000000       0.00000000       0.00000000       1.00000000       1.50000000       2.00000000       2.44905667       0.00000000       0.00000000      -0.00000000      -0.00000000      -0.00000000
X       12.31175390      10.00000000      10.00000000       1.00000000       0.00000000       0.00000000       0.00000000       1.00000000       1.50000000       2.00000000      -2.44905667      -0.00000000      -0.00000000      -0.00000000      -0.00000000      -0.00000000
2
Lattice="20.0 0.0 0.0 0.0 20.0 0.0 0.0 0.0 20.0" Properties=species:S:1:pos:R:3:quaternions:R:4:c_diameter\[1\]:R:1:c_diameter\[2\]:R:1:c_diameter\[3\]:R:1:forces:R:3:torques:R:3 separation_distance=2.3320324456688097 energy=-0.6600224640877903 pbc="F F F"
X       10.00000000      10.00000000      10.00000000       1.00000000       0.00000000       0.00000000       0.00000000       1.00000000       1.50000000       2.00000000       2.32470198       0.00000000       0.00000000      -0.00000000      -0.00000000      -0.00000000
X       12.33203245      10.00000000      10.00000000       1.00000000       0.00000000       0.00000000       0.00000000       1.00000000       1.50000000       2.00000000      -2.32470198      -0.00000000      -0.00000000      -0.00000000      -0.00000000      -0.00000000
2
Lattice="20.0 0.0 0.0 0.0 20.0 0.0 0.0 0.0 20.0" Properties=species:S:1:pos:R:3:quaternions:R:4:c_diameter\[1\]:R:1:c_diameter\[2\]:R:1:c_diameter\[3\]:R:1:forces:R:3:torques:R:3 separation_distance=2.3523109886746254 energy=-0.6142131215535535 pbc="F F F"
X       10.00000000      10.00000000      10.00000000       1.00000000       0.00000000       0.00000000       0.00000000       1.00000000       1.50000000       2.00000000       2.19248316       0.00000000       0.00000000      -0.00000000      -0.00000000      -0.00000000
X       12.35231099      10.00000000      10.00000000       1.00000000       0.00000000       0.00000000       0.00000000       1.00000000       1.50000000       2.00000000      -2.19248316      -0.00000000      -0.00000000      -0.00000000      -0.00000000      -0.00000000
2
Lattice="20.0 0.0 0.0 0.0 20.0 0.0 0.0 0.0 20.0" Properties=species:S:1:pos:R:3:quaternions:R:4:c_diameter\[1\]:R:1:c_diameter\[2\]:R:1:c_diameter\[3\]:R:1:forces:R:3:torques:R:3 separation_distance=2.372589531680441 energy=-0.5711196681162477 pbc="F F F"
X       10.00000000      10.00000000      10.00000000       1.00000000       0.00000000       0.00000000       0.00000000       1.00000000       1.50000000       2.00000000       2.05756050       0.00000000       0.00000000      -0.00000000      -0.00000000      -0.00000000
X       12.37258953      10.00000000      10.00000000       1.00000000       0.00000000       0.00000000       0.00000000       1.00000000       1.50000000       2.00000000      -2.05756050      -0.00000000      -0.00000000      -0.00000000      -0.00000000      -0.00000000
2
Lattice="20.0 0.0 0.0 0.0 20.0 0.0 0.0 0.0 20.0" Properties=species:S:1:pos:R:3:quaternions:R:4:c_diameter\[1\]:R:1:c_diameter\[2\]:R:1:c_diameter\[3\]:R:1:forces:R:3:torques:R:3 separation_distance=2.3928680746862567 energy=-0.530758054085195 pbc="F F F"
X       10.00000000      10.00000000      10.00000000       1.00000000       0.00000000       0.00000000       0.00000000       1.00000000       1.50000000       2.00000000       1.92354847       0.00000000       0.00000000      -0.00000000      -0.00000000      -0.00000000
X       12.39286807      10.00000000      10.00000000       1.00000000       0.00000000       0.00000000       0.00000000       1.00000000       1.50000000       2.00000000      -1.92354847      -0.00000000      -0.00000000      -0.00000000      -0.00000000      -0.00000000
2
Lattice="20.0 0.0 0.0 0.0 20.0 0.0 0.0 0.0 20.0" Properties=species:S:1:pos:R:3:quaternions:R:4:c_diameter\[1\]:R:1:c_diameter\[2\]:R:1:c_diameter\[3\]:R:1:forces:R:3:torques:R:3 separation_distance=2.4131466176920724 energy=-0.493083073916424 pbc="F F F"
X       10.00000000      10.00000000      10.00000000       1.00000000       0.00000000       0.00000000       0.00000000       1.00000000       1.50000000       2.00000000       1.79292233       0.00000000       0.00000000      -0.00000000      -0.00000000      -0.00000000
X       12.41314662      10.00000000      10.00000000       1.00000000       0.00000000       0.00000000       0.00000000       1.00000000       1.50000000       2.00000000      -1.79292233      -0.00000000      -0.00000000      -0.00000000      -0.00000000      -0.00000000
2
Lattice="20.0 0.0 0.0 0.0 20.0 0.0 0.0 0.0 20.0" Properties=species:S:1:pos:R:3:quaternions:R:4:c_diameter\[1\]:R:1:c_diameter\[2\]:R:1:c_diameter\[3\]:R:1:forces:R:3:torques:R:3 separation_distance=2.4334251606978885 energy=-0.45800824945594837 pbc="F F F"
X       10.00000000      10.00000000      10.00000000       1.00000000       0.00000000       0.00000000       0.00000000       1.00000000       1.50000000       2.00000000       1.66732068       0.00000000       0.00000000      -0.00000000      -0.00000000      -0.00000000
X       12.43342516      10.00000000      10.00000000       1.00000000       0.00000000       0.00000000       0.00000000       1.00000000       1.50000000       2.00000000      -1.66732068      -0.00000000      -0.00000000      -0.00000000      -0.00000000      -0.00000000
2
Lattice="20.0 0.0 0.0 0.0 20.0 0.0 0.0 0.0 20.0" Properties=species:S:1:pos:R:3:quaternions:R:4:c_diameter\[1\]:R:1:c_diameter\[2\]:R:1:c_diameter\[3\]:R:1:forces:R:3:torques:R:3 separation_distance=2.453703703703704 energy=-0.4254204003977225 pbc="F F F"
X       10.00000000      10.00000000      10.00000000       1.00000000       0.00000000       0.00000000       0.00000000       1.00000000       1.50000000       2.00000000       1.54777070       0.00000000       0.00000000      -0.00000000      -0.00000000      -0.00000000
X       12.45370370      10.00000000      10.00000000       1.00000000       0.00000000       0.00000000       0.00000000       1.00000000       1.50000000       2.00000000      -1.54777070      -0.00000000      -0.00000000      -0.00000000      -0.00000000      -0.00000000
2
Lattice="20.0 0.0 0.0 0.0 20.0 0.0 0.0 0.0 20.0" Properties=species:S:1:pos:R:3:quaternions:R:4:c_diameter\[1\]:R:1:c_diameter\[2\]:R:1:c_diameter\[3\]:R:1:forces:R:3:torques:R:3 separation_distance=2.47398224670952 energy=-0.395190258702136 pbc="F F F"
X       10.00000000      10.00000000      10.00000000       1.00000000       0.00000000       0.00000000       0.00000000       1.00000000       1.50000000       2.00000000       1.43485587       0.00000000       0.00000000      -0.00000000      -0.00000000      -0.00000000
X       12.47398225      10.00000000      10.00000000       1.00000000       0.00000000       0.00000000       0.00000000       1.00000000       1.50000000       2.00000000      -1.43485587      -0.00000000      -0.00000000      -0.00000000      -0.00000000      -0.00000000
2
Lattice="20.0 0.0 0.0 0.0 20.0 0.0 0.0 0.0 20.0" Properties=species:S:1:pos:R:3:quaternions:R:4:c_diameter\[1\]:R:1:c_diameter\[2\]:R:1:c_diameter\[3\]:R:1:forces:R:3:torques:R:3 separation_distance=2.4942607897153355 energy=-0.36718013775032693 pbc="F F F"
X       10.00000000      10.00000000      10.00000000       1.00000000       0.00000000       0.00000000       0.00000000       1.00000000       1.50000000       2.00000000       1.32884086       0.00000000       0.00000000      -0.00000000      -0.00000000      -0.00000000
X       12.49426079      10.00000000      10.00000000       1.00000000       0.00000000       0.00000000       0.00000000       1.00000000       1.50000000       2.00000000      -1.32884086      -0.00000000      -0.00000000      -0.00000000      -0.00000000      -0.00000000
2
Lattice="20.0 0.0 0.0 0.0 20.0 0.0 0.0 0.0 20.0" Properties=species:S:1:pos:R:3:quaternions:R:4:c_diameter\[1\]:R:1:c_diameter\[2\]:R:1:c_diameter\[3\]:R:1:forces:R:3:torques:R:3 separation_distance=2.514539332721151 energy=-0.3412494106329663 pbc="F F F"
X       10.00000000      10.00000000      10.00000000       1.00000000       0.00000000       0.00000000       0.00000000       1.00000000       1.50000000       2.00000000       1.22976425       0.00000000       0.00000000      -0.00000000      -0.00000000      -0.00000000
X       12.51453933      10.00000000      10.00000000       1.00000000       0.00000000       0.00000000       0.00000000       1.00000000       1.50000000       2.00000000      -1.22976425      -0.00000000      -0.00000000      -0.00000000      -0.00000000      -0.00000000
2
Lattice="20.0 0.0 0.0 0.0 20.0 0.0 0.0 0.0 20.0" Properties=species:S:1:pos:R:3:quaternions:R:4:c_diameter\[1\]:R:1:c_diameter\[2\]:R:1:c_diameter\[3\]:R:1:forces:R:3:torques:R:3 separation_distance=2.534817875726967 energy=-0.3172583614567468 pbc="F F F"
X       10.00000000      10.00000000      10.00000000       1.00000000       0.00000000       0.00000000       0.00000000       1.00000000       1.50000000       2.00000000       1.13750742       0.00000000       0.00000000      -0.00000000      -0.00000000      -0.00000000
X       12.53481788      10.00000000      10.00000000       1.00000000       0.00000000       0.00000000       0.00000000       1.00000000       1.50000000       2.00000000      -1.13750742      -0.00000000      -0.00000000      -0.00000000      -0.00000000      -0.00000000
2
Lattice="20.0 0.0 0.0 0.0 20.0 0.0 0.0 0.0 20.0" Properties=species:S:1:pos:R:3:quaternions:R:4:c_diameter\[1\]:R:1:c_diameter\[2\]:R:1:c_diameter\[3\]:R:1:forces:R:3:torques:R:3 separation_distance=2.5550964187327825 energy=-0.29507083161493186 pbc="F F F"
X       10.00000000      10.00000000      10.00000000       1.00000000       0.00000000       0.00000000       0.00000000       1.00000000       1.50000000       2.00000000       1.05184539       0.00000000       0.00000000      -0.00000000      -0.00000000      -0.00000000
X       12.55509642      10.00000000      10.00000000       1.00000000       0.00000000       0.00000000       0.00000000       1.00000000       1.50000000       2.00000000      -1.05184539      -0.00000000      -0.00000000      -0.00000000      -0.00000000      -0.00000000
2
Lattice="20.0 0.0 0.0 0.0 20.0 0.0 0.0 0.0 20.0" Properties=species:S:1:pos:R:3:quaternions:R:4:c_diameter\[1\]:R:1:c_diameter\[2\]:R:1:c_diameter\[3\]:R:1:forces:R:3:torques:R:3 separation_distance=2.575374961738598 energy=-0.27455597697703654 pbc="F F F"
X       10.00000000      10.00000000      10.00000000       1.00000000       0.00000000       0.00000000       0.00000000       1.00000000       1.50000000       2.00000000       0.97248431       0.00000000       0.00000000      -0.00000000      -0.00000000      -0.00000000
X       12.57537496      10.00000000      10.00000000       1.00000000       0.00000000       0.00000000       0.00000000       1.00000000       1.50000000       2.00000000      -0.97248431      -0.00000000      -0.00000000      -0.00000000      -0.00000000      -0.00000000
2
Lattice="20.0 0.0 0.0 0.0 20.0 0.0 0.0 0.0 20.0" Properties=species:S:1:pos:R:3:quaternions:R:4:c_diameter\[1\]:R:1:c_diameter\[2\]:R:1:c_diameter\[3\]:R:1:forces:R:3:torques:R:3 separation_distance=2.5956535047444143 energy=-0.25558937263940396 pbc="F F F"
X       10.00000000      10.00000000      10.00000000       1.00000000       0.00000000       0.00000000       0.00000000       1.00000000       1.50000000       2.00000000       0.89908880       0.00000000       0.00000000      -0.00000000      -0.00000000      -0.00000000
X       12.59565350      10.00000000      10.00000000       1.00000000       0.00000000       0.00000000       0.00000000       1.00000000       1.50000000       2.00000000      -0.89908880      -0.00000000      -0.00000000      -0.00000000      -0.00000000      -0.00000000
2
Lattice="20.0 0.0 0.0 0.0 20.0 0.0 0.0 0.0 20.0" Properties=species:S:1:pos:R:3:quaternions:R:4:c_diameter\[1\]:R:1:c_diameter\[2\]:R:1:c_diameter\[3\]:R:1:forces:R:3:torques:R:3 separation_distance=2.61593204775023 energy=-0.23805364242080534 pbc="F F F"
X       10.00000000      10.00000000      10.00000000       1.00000000       0.00000000       0.00000000       0.00000000       1.00000000       1.50000000       2.00000000       0.83130184       0.00000000       0.00000000      -0.00000000      -0.00000000      -0.00000000
X       12.61593205      10.00000000      10.00000000       1.00000000       0.00000000       0.00000000       0.00000000       1.00000000       1.50000000       2.00000000      -0.83130184      -0.00000000      -0.00000000      -0.00000000      -0.00000000      -0.00000000
2
Lattice="20.0 0.0 0.0 0.0 20.0 0.0 0.0 0.0 20.0" Properties=species:S:1:pos:R:3:quaternions:R:4:c_diameter\[1\]:R:1:c_diameter\[2\]:R:1:c_diameter\[3\]:R:1:forces:R:3:torques:R:3 separation_distance=2.6362105907560456 energy=-0.2218387456463872 pbc="F F F"
X       10.00000000      10.00000000      10.00000000       1.00000000       0.00000000       0.00000000       0.00000000       1.00000000       1.50000000       2.00000000       0.76875896       0.00000000       0.00000000      -0.00000000      -0.00000000      -0.00000000
X       12.63621059      10.00000000      10.00000000       1.00000000       0.00000000       0.00000000       0.00000000       1.00000000       1.50000000       2.00000000      -0.76875896      -0.00000000      -0.00000000      -0.00000000      -0.00000000      -0.00000000
2
Lattice="20.0 0.0 0.0 0.0 20.0 0.0 0.0 0.0 20.0" Properties=species:S:1:pos:R:3:quaternions:R:4:c_diameter\[1\]:R:1:c_diameter\[2\]:R:1:c_diameter\[3\]:R:1:forces:R:3:torques:R:3 separation_distance=2.6564891337618612 energy=-0.20684202020626158 pbc="F F F"
X       10.00000000      10.00000000      10.00000000       1.00000000       0.00000000       0.00000000       0.00000000       1.00000000       1.50000000       2.00000000       0.71109828       0.00000000       0.00000000      -0.00000000      -0.00000000      -0.00000000
X       12.65648913      10.00000000      10.00000000       1.00000000       0.00000000       0.00000000       0.00000000       1.00000000       1.50000000       2.00000000      -0.71109828      -0.00000000      -0.00000000      -0.00000000      -0.00000000      -0.00000000
2
Lattice="20.0 0.0 0.0 0.0 20.0 0.0 0.0 0.0 20.0" Properties=species:S:1:pos:R:3:quaternions:R:4:c_diameter\[1\]:R:1:c_diameter\[2\]:R:1:c_diameter\[3\]:R:1:forces:R:3:torques:R:3 separation_distance=2.6767676767676774 energy=-0.19296805562753666 pbc="F F F"
X       10.00000000      10.00000000      10.00000000       1.00000000       0.00000000       0.00000000       0.00000000       1.00000000       1.50000000       2.00000000       0.65796741       0.00000000       0.00000000      -0.00000000      -0.00000000      -0.00000000
X       12.67676768      10.00000000      10.00000000       1.00000000       0.00000000       0.00000000       0.00000000       1.00000000       1.50000000       2.00000000      -0.65796741      -0.00000000      -0.00000000      -0.00000000      -0.00000000      -0.00000000
2
Lattice="20.0 0.0 0.0 0.0 20.0 0.0 0.0 0.0 20.0" Properties=species:S:1:pos:R:3:quaternions:R:4:c_diameter\[1\]:R:1:c_diameter\[2\]:R:1:c_diameter\[3\]:R:1:forces:R:3:torques:R:3 separation_distance=2.697046219773493 energy=-0.1801284508934914 pbc="F F F"
X       10.00000000      10.00000000      10.00000000       1.00000000       0.00000000       0.00000000       0.00000000       1.00000000       1.50000000       2.00000000       0.60902803       0.00000000       0.00000000      -0.00000000      -0.00000000      -0.00000000
X       12.69704622      10.00000000      10.00000000       1.00000000       0.00000000       0.00000000       0.00000000       1.00000000       1.50000000       2.00000000      -0.60902803      -0.00000000      -0.00000000      -0.00000000      -0.00000000      -0.00000000
2
Lattice="20.0 0.0 0.0 0.0 20.0 0.0 0.0 0.0 20.0" Properties=species:S:1:pos:R:3:quaternions:R:4:c_diameter\[1\]:R:1:c_diameter\[2\]:R:1:c_diameter\[3\]:R:1:forces:R:3:torques:R:3 separation_distance=2.7173247627793087 energy=-0.16824149743627703 pbc="F F F"
X       10.00000000      10.00000000      10.00000000       1.00000000       0.00000000       0.00000000       0.00000000       1.00000000       1.50000000       2.00000000       0.56395878       0.00000000       0.00000000      -0.00000000      -0.00000000      -0.00000000
X       12.71732476      10.00000000      10.00000000       1.00000000       0.00000000       0.00000000       0.00000000       1.00000000       1.50000000       2.00000000      -0.56395878      -0.00000000      -0.00000000      -0.00000000      -0.00000000      -0.00000000
2
Lattice="20.0 0.0 0.0 0.0 20.0 0.0 0.0 0.0 20.0" Properties=species:S:1:pos:R:3:quaternions:R:4:c_diameter\[1\]:R:1:c_diameter\[2\]:R:1:c_diameter\[3\]:R:1:forces:R:3:torques:R:3 separation_distance=2.7376033057851243 energy=-0.15723181696308727 pbc="F F F"
X       10.00000000      10.00000000      10.00000000       1.00000000       0.00000000       0.00000000       0.00000000       1.00000000       1.50000000       2.00000000       0.52245688       0.00000000       0.00000000      -0.00000000      -0.00000000      -0.00000000
X       12.73760331      10.00000000      10.00000000       1.00000000       0.00000000       0.00000000       0.00000000       1.00000000       1.50000000       2.00000000      -0.52245688      -0.00000000      -0.00000000      -0.00000000      -0.00000000      -0.00000000
2
Lattice="20.0 0.0 0.0 0.0 20.0 0.0 0.0 0.0 20.0" Properties=species:S:1:pos:R:3:quaternions:R:4:c_diameter\[1\]:R:1:c_diameter\[2\]:R:1:c_diameter\[3\]:R:1:forces:R:3:torques:R:3 separation_distance=2.75788184879094 energy=-0.14702997568159407 pbc="F F F"
X       10.00000000      10.00000000      10.00000000       1.00000000       0.00000000       0.00000000       0.00000000       1.00000000       1.50000000       2.00000000       0.48423888       0.00000000       0.00000000      -0.00000000      -0.00000000      -0.00000000
X       12.75788185      10.00000000      10.00000000       1.00000000       0.00000000       0.00000000       0.00000000       1.00000000       1.50000000       2.00000000      -0.48423888      -0.00000000      -0.00000000      -0.00000000      -0.00000000      -0.00000000
2
Lattice="20.0 0.0 0.0 0.0 20.0 0.0 0.0 0.0 20.0" Properties=species:S:1:pos:R:3:quaternions:R:4:c_diameter\[1\]:R:1:c_diameter\[2\]:R:1:c_diameter\[3\]:R:1:forces:R:3:torques:R:3 separation_distance=2.7781603917967557 energy=-0.13757209041513974 pbc="F F F"
X       10.00000000      10.00000000      10.00000000       1.00000000       0.00000000       0.00000000       0.00000000       1.00000000       1.50000000       2.00000000       0.44904077       0.00000000       0.00000000      -0.00000000      -0.00000000      -0.00000000
X       12.77816039      10.00000000      10.00000000       1.00000000       0.00000000       0.00000000       0.00000000       1.00000000       1.50000000       2.00000000      -0.44904077      -0.00000000      -0.00000000      -0.00000000      -0.00000000      -0.00000000
2
Lattice="20.0 0.0 0.0 0.0 20.0 0.0 0.0 0.0 20.0" Properties=species:S:1:pos:R:3:quaternions:R:4:c_diameter\[1\]:R:1:c_diameter\[2\]:R:1:c_diameter\[3\]:R:1:forces:R:3:torques:R:3 separation_distance=2.7984389348025713 energy=-0.12879943754908263 pbc="F F F"
X       10.00000000      10.00000000      10.00000000       1.00000000       0.00000000       0.00000000       0.00000000       1.00000000       1.50000000       2.00000000       0.41661760       0.00000000       0.00000000      -0.00000000      -0.00000000      -0.00000000
X       12.79843893      10.00000000      10.00000000       1.00000000       0.00000000       0.00000000       0.00000000       1.00000000       1.50000000       2.00000000      -0.41661760      -0.00000000      -0.00000000      -0.00000000      -0.00000000      -0.00000000
2
Lattice="20.0 0.0 0.0 0.0 20.0 0.0 0.0 0.0 20.0" Properties=species:S:1:pos:R:3:quaternions:R:4:c_diameter\[1\]:R:1:c_diameter\[2\]:R:1:c_diameter\[3\]:R:1:forces:R:3:torques:R:3 separation_distance=2.818717477808387 energy=-0.12065807235483621 pbc="F F F"
X       10.00000000      10.00000000      10.00000000       1.00000000       0.00000000       0.00000000       0.00000000       1.00000000       1.50000000       2.00000000       0.38674287       0.00000000       0.00000000      -0.00000000      -0.00000000      -0.00000000
X       12.81871748      10.00000000      10.00000000       1.00000000       0.00000000       0.00000000       0.00000000       1.00000000       1.50000000       2.00000000      -0.38674287      -0.00000000      -0.00000000      -0.00000000      -0.00000000      -0.00000000
2
Lattice="20.0 0.0 0.0 0.0 20.0 0.0 0.0 0.0 20.0" Properties=species:S:1:pos:R:3:quaternions:R:4:c_diameter\[1\]:R:1:c_diameter\[2\]:R:1:c_diameter\[3\]:R:1:forces:R:3:torques:R:3 separation_distance=2.838996020814203 energy=-0.11309846371613856 pbc="F F F"
X       10.00000000      10.00000000      10.00000000       1.00000000       0.00000000       0.00000000       0.00000000       1.00000000       1.50000000       2.00000000       0.35920763       0.00000000       0.00000000      -0.00000000      -0.00000000      -0.00000000
X       12.83899602      10.00000000      10.00000000       1.00000000       0.00000000       0.00000000       0.00000000       1.00000000       1.50000000       2.00000000      -0.35920763      -0.00000000      -0.00000000      -0.00000000      -0.00000000      -0.00000000
2
Lattice="20.0 0.0 0.0 0.0 20.0 0.0 0.0 0.0 20.0" Properties=species:S:1:pos:R:3:quaternions:R:4:c_diameter\[1\]:R:1:c_diameter\[2\]:R:1:c_diameter\[3\]:R:1:forces:R:3:torques:R:3 separation_distance=2.8592745638200188 energy=-0.10607514741990687 pbc="F F F"
X       10.00000000      10.00000000      10.00000000       1.00000000       0.00000000       0.00000000       0.00000000       1.00000000       1.50000000       2.00000000       0.33381955       0.00000000       0.00000000      -0.00000000      -0.00000000      -0.00000000
X       12.85927456      10.00000000      10.00000000       1.00000000       0.00000000       0.00000000       0.00000000       1.00000000       1.50000000       2.00000000      -0.33381955      -0.00000000      -0.00000000      -0.00000000      -0.00000000      -0.00000000
2
Lattice="20.0 0.0 0.0 0.0 20.0 0.0 0.0 0.0 20.0" Properties=species:S:1:pos:R:3:quaternions:R:4:c_diameter\[1\]:R:1:c_diameter\[2\]:R:1:c_diameter\[3\]:R:1:forces:R:3:torques:R:3 separation_distance=2.8795531068258344 energy=-0.09954639981006878 pbc="F F F"
X       10.00000000      10.00000000      10.00000000       1.00000000       0.00000000       0.00000000       0.00000000       1.00000000       1.50000000       2.00000000       0.31040187       0.00000000       0.00000000      -0.00000000      -0.00000000      -0.00000000
X       12.87955311      10.00000000      10.00000000       1.00000000       0.00000000       0.00000000       0.00000000       1.00000000       1.50000000       2.00000000      -0.31040187      -0.00000000      -0.00000000      -0.00000000      -0.00000000      -0.00000000
2
Lattice="20.0 0.0 0.0 0.0 20.0 0.0 0.0 0.0 20.0" Properties=species:S:1:pos:R:3:quaternions:R:4:c_diameter\[1\]:R:1:c_diameter\[2\]:R:1:c_diameter\[3\]:R:1:forces:R:3:torques:R:3 separation_distance=2.89983164983165 energy=-0.0934739326145002 pbc="F F F"
X       10.00000000      10.00000000      10.00000000       1.00000000       0.00000000       0.00000000       0.00000000       1.00000000       1.50000000       2.00000000       0.28879236       0.00000000       0.00000000      -0.00000000      -0.00000000      -0.00000000
X       12.89983165      10.00000000      10.00000000       1.00000000       0.00000000       0.00000000       0.00000000       1.00000000       1.50000000       2.00000000      -0.28879236      -0.00000000      -0.00000000      -0.00000000      -0.00000000      -0.00000000
2
Lattice="20.0 0.0 0.0 0.0 20.0 0.0 0.0 0.0 20.0" Properties=species:S:1:pos:R:3:quaternions:R:4:c_diameter\[1\]:R:1:c_diameter\[2\]:R:1:c_diameter\[3\]:R:1:forces:R:3:torques:R:3 separation_distance=2.920110192837466 energy=-0.08782260904949682 pbc="F F F"
X       10.00000000      10.00000000      10.00000000       1.00000000       0.00000000       0.00000000       0.00000000       1.00000000       1.50000000       2.00000000       0.26884226       0.00000000       0.00000000      -0.00000000      -0.00000000      -0.00000000
X       12.92011019      10.00000000      10.00000000       1.00000000       0.00000000       0.00000000       0.00000000       1.00000000       1.50000000       2.00000000      -0.26884226      -0.00000000      -0.00000000      -0.00000000      -0.00000000      -0.00000000
2
Lattice="20.0 0.0 0.0 0.0 20.0 0.0 0.0 0.0 20.0" Properties=species:S:1:pos:R:3:quaternions:R:4:c_diameter\[1\]:R:1:c_diameter\[2\]:R:1:c_diameter\[3\]:R:1:forces:R:3:torques:R:3 separation_distance=2.940388735843282 energy=-0.08256018081246035 pbc="F F F"
X       10.00000000      10.00000000      10.00000000       1.00000000       0.00000000       0.00000000       0.00000000       1.00000000       1.50000000       2.00000000       0.25041528       0.00000000       0.00000000      -0.00000000      -0.00000000      -0.00000000
X       12.94038874      10.00000000      10.00000000       1.00000000       0.00000000       0.00000000       0.00000000       1.00000000       1.50000000       2.00000000      -0.25041528      -0.00000000      -0.00000000      -0.00000000      -0.00000000      -0.00000000
2
Lattice="20.0 0.0 0.0 0.0 20.0 0.0 0.0 0.0 20.0" Properties=species:S:1:pos:R:3:quaternions:R:4:c_diameter\[1\]:R:1:c_diameter\[2\]:R:1:c_diameter\[3\]:R:1:forces:R:3:torques:R:3 separation_distance=2.9606672788490975 energy=-0.0776570452379585 pbc="F F F"
X       10.00000000      10.00000000      10.00000000       1.00000000       0.00000000       0.00000000       0.00000000       1.00000000       1.50000000       2.00000000       0.23338663       0.00000000       0.00000000      -0.00000000      -0.00000000      -0.00000000
X       12.96066728      10.00000000      10.00000000       1.00000000       0.00000000       0.00000000       0.00000000       1.00000000       1.50000000       2.00000000      -0.23338663      -0.00000000      -0.00000000      -0.00000000      -0.00000000      -0.00000000
2
Lattice="20.0 0.0 0.0 0.0 20.0 0.0 0.0 0.0 20.0" Properties=species:S:1:pos:R:3:quaternions:R:4:c_diameter\[1\]:R:1:c_diameter\[2\]:R:1:c_diameter\[3\]:R:1:forces:R:3:torques:R:3 separation_distance=2.980945821854913 energy=-0.07308602167434528 pbc="F F F"
X       10.00000000      10.00000000      10.00000000       1.00000000       0.00000000       0.00000000       0.00000000       1.00000000       1.50000000       2.00000000       0.21764206       0.00000000       0.00000000      -0.00000000      -0.00000000      -0.00000000
X       12.98094582      10.00000000      10.00000000       1.00000000       0.00000000       0.00000000       0.00000000       1.00000000       1.50000000       2.00000000      -0.21764206      -0.00000000      -0.00000000      -0.00000000      -0.00000000      -0.00000000
2
Lattice="20.0 0.0 0.0 0.0 20.0 0.0 0.0 0.0 20.0" Properties=species:S:1:pos:R:3:quaternions:R:4:c_diameter\[1\]:R:1:c_diameter\[2\]:R:1:c_diameter\[3\]:R:1:forces:R:3:torques:R:3 separation_distance=3.001224364860729 energy=-0.06882214600677806 pbc="F F F"
X       10.00000000      10.00000000      10.00000000       1.00000000       0.00000000       0.00000000       0.00000000       1.00000000       1.50000000       2.00000000       0.20307707       0.00000000       0.00000000      -0.00000000      -0.00000000      -0.00000000
X       13.00122436      10.00000000      10.00000000       1.00000000       0.00000000       0.00000000       0.00000000       1.00000000       1.50000000       2.00000000      -0.20307707      -0.00000000      -0.00000000      -0.00000000      -0.00000000      -0.00000000
2
Lattice="20.0 0.0 0.0 0.0 20.0 0.0 0.0 0.0 20.0" Properties=species:S:1:pos:R:3:quaternions:R:4:c_diameter\[1\]:R:1:c_diameter\[2\]:R:1:c_diameter\[3\]:R:1:forces:R:3:torques:R:3 separation_distance=3.0215029078665445 energy=-0.06484248218439459 pbc="F F F"
X       10.00000000      10.00000000      10.00000000       1.00000000       0.00000000       0.00000000       0.00000000       1.00000000       1.50000000       2.00000000       0.18959603       0.00000000       0.00000000      -0.00000000      -0.00000000      -0.00000000
X       13.02150291      10.00000000      10.00000000       1.00000000       0.00000000       0.00000000       0.00000000       1.00000000       1.50000000       2.00000000      -0.18959603      -0.00000000      -0.00000000      -0.00000000      -0.00000000      -0.00000000
2
Lattice="20.0 0.0 0.0 0.0 20.0 0.0 0.0 0.0 20.0" Properties=species:S:1:pos:R:3:quaternions:R:4:c_diameter\[1\]:R:1:c_diameter\[2\]:R:1:c_diameter\[3\]:R:1:forces:R:3:torques:R:3 separation_distance=3.04178145087236 energy=-0.0611259495869371 pbc="F F F"
X       10.00000000      10.00000000      10.00000000       1.00000000       0.00000000       0.00000000       0.00000000       1.00000000       1.50000000       2.00000000       0.17711144       0.00000000       0.00000000      -0.00000000      -0.00000000      -0.00000000
X       13.04178145      10.00000000      10.00000000       1.00000000       0.00000000       0.00000000       0.00000000       1.00000000       1.50000000       2.00000000      -0.17711144      -0.00000000      -0.00000000      -0.00000000      -0.00000000      -0.00000000
2
Lattice="20.0 0.0 0.0 0.0 20.0 0.0 0.0 0.0 20.0" Properties=species:S:1:pos:R:3:quaternions:R:4:c_diameter\[1\]:R:1:c_diameter\[2\]:R:1:c_diameter\[3\]:R:1:forces:R:3:torques:R:3 separation_distance=3.062059993878176 energy=-0.05765316507593665 pbc="F F F"
X       10.00000000      10.00000000      10.00000000       1.00000000       0.00000000       0.00000000       0.00000000       1.00000000       1.50000000       2.00000000       0.16554328       0.00000000       0.00000000      -0.00000000      -0.00000000      -0.00000000
X       13.06205999      10.00000000      10.00000000       1.00000000       0.00000000       0.00000000       0.00000000       1.00000000       1.50000000       2.00000000      -0.16554328      -0.00000000      -0.00000000      -0.00000000      -0.00000000      -0.00000000
2
Lattice="20.0 0.0 0.0 0.0 20.0 0.0 0.0 0.0 20.0" Properties=species:S:1:pos:R:3:quaternions:R:4:c_diameter\[1\]:R:1:c_diameter\[2\]:R:1:c_diameter\[3\]:R:1:forces:R:3:torques:R:3 separation_distance=3.0823385368839915 energy=-0.054406298607717216 pbc="F F F"
X       10.00000000      10.00000000      10.00000000       1.00000000       0.00000000       0.00000000       0.00000000       1.00000000       1.50000000       2.00000000       0.15481829       0.00000000       0.00000000      -0.00000000      -0.00000000      -0.00000000
X       13.08233854      10.00000000      10.00000000       1.00000000       0.00000000       0.00000000       0.00000000       1.00000000       1.50000000       2.00000000      -0.15481829      -0.00000000      -0.00000000      -0.00000000      -0.00000000      -0.00000000
2
Lattice="20.0 0.0 0.0 0.0 20.0 0.0 0.0 0.0 20.0" Properties=species:S:1:pos:R:3:quaternions:R:4:c_diameter\[1\]:R:1:c_diameter\[2\]:R:1:c_diameter\[3\]:R:1:forces:R:3:torques:R:3 separation_distance=3.1026170798898076 energy=-0.05136894133249332 pbc="F F F"
X       10.00000000      10.00000000      10.00000000       1.00000000       0.00000000       0.00000000       0.00000000       1.00000000       1.50000000       2.00000000       0.14486945       0.00000000       0.00000000      -0.00000000      -0.00000000      -0.00000000
X       13.10261708      10.00000000      10.00000000       1.00000000       0.00000000       0.00000000       0.00000000       1.00000000       1.50000000       2.00000000      -0.14486945      -0.00000000      -0.00000000      -0.00000000      -0.00000000      -0.00000000
2
Lattice="20.0 0.0 0.0 0.0 20.0 0.0 0.0 0.0 20.0" Properties=species:S:1:pos:R:3:quaternions:R:4:c_diameter\[1\]:R:1:c_diameter\[2\]:R:1:c_diameter\[3\]:R:1:forces:R:3:torques:R:3 separation_distance=3.1228956228956233 energy=-0.04852598516019678 pbc="F F F"
X       10.00000000      10.00000000      10.00000000       1.00000000       0.00000000       0.00000000       0.00000000       1.00000000       1.50000000       2.00000000       0.13563542       0.00000000       0.00000000      -0.00000000      -0.00000000      -0.00000000
X       13.12289562      10.00000000      10.00000000       1.00000000       0.00000000       0.00000000       0.00000000       1.00000000       1.50000000       2.00000000      -0.13563542      -0.00000000      -0.00000000      -0.00000000      -0.00000000      -0.00000000
2
Lattice="20.0 0.0 0.0 0.0 20.0 0.0 0.0 0.0 20.0" Properties=species:S:1:pos:R:3:quaternions:R:4:c_diameter\[1\]:R:1:c_diameter\[2\]:R:1:c_diameter\[3\]:R:1:forces:R:3:torques:R:3 separation_distance=3.143174165901439 energy=-0.04586351283530827 pbc="F F F"
X       10.00000000      10.00000000      10.00000000       1.00000000       0.00000000       0.00000000       0.00000000       1.00000000       1.50000000       2.00000000       0.12706002       0.00000000       0.00000000      -0.00000000      -0.00000000      -0.00000000
X       13.14317417      10.00000000      10.00000000       1.00000000       0.00000000       0.00000000       0.00000000       1.00000000       1.50000000       2.00000000      -0.12706002      -0.00000000      -0.00000000      -0.00000000      -0.00000000      -0.00000000
2
Lattice="20.0 0.0 0.0 0.0 20.0 0.0 0.0 0.0 20.0" Properties=species:S:1:pos:R:3:quaternions:R:4:c_diameter\[1\]:R:1:c_diameter\[2\]:R:1:c_diameter\[3\]:R:1:forces:R:3:torques:R:3 separation_distance=3.163452708907255 energy=-0.043368697626946305 pbc="F F F"
X       10.00000000      10.00000000      10.00000000       1.00000000       0.00000000       0.00000000       0.00000000       1.00000000       1.50000000       2.00000000       0.11909180       0.00000000       0.00000000      -0.00000000      -0.00000000      -0.00000000
X       13.16345271      10.00000000      10.00000000       1.00000000       0.00000000       0.00000000       0.00000000       1.00000000       1.50000000       2.00000000      -0.11909180      -0.00000000      -0.00000000      -0.00000000      -0.00000000      -0.00000000
2
Lattice="20.0 0.0 0.0 0.0 20.0 0.0 0.0 0.0 20.0" Properties=species:S:1:pos:R:3:quaternions:R:4:c_diameter\[1\]:R:1:c_diameter\[2\]:R:1:c_diameter\[3\]:R:1:forces:R:3:torques:R:3 separation_distance=3.1837312519130707 energy=-0.04102971180465283 pbc="F F F"
X       10.00000000      10.00000000      10.00000000       1.00000000       0.00000000       0.00000000       0.00000000       1.00000000       1.50000000       2.00000000       0.11168361       0.00000000       0.00000000      -0.00000000      -0.00000000      -0.00000000
X       13.18373125      10.00000000      10.00000000       1.00000000       0.00000000       0.00000000       0.00000000       1.00000000       1.50000000       2.00000000      -0.11168361      -0.00000000      -0.00000000      -0.00000000      -0.00000000      -0.00000000
2
Lattice="20.0 0.0 0.0 0.0 20.0 0.0 0.0 0.0 20.0" Properties=species:S:1:pos:R:3:quaternions:R:4:c_diameter\[1\]:R:1:c_diameter\[2\]:R:1:c_diameter\[3\]:R:1:forces:R:3:torques:R:3 separation_distance=3.2040097949188864 energy=-0.03883564313324235 pbc="F F F"
X       10.00000000      10.00000000      10.00000000       1.00000000       0.00000000       0.00000000       0.00000000       1.00000000       1.50000000       2.00000000       0.10479225       0.00000000       0.00000000      -0.00000000      -0.00000000      -0.00000000
X       13.20400979      10.00000000      10.00000000       1.00000000       0.00000000       0.00000000       0.00000000       1.00000000       1.50000000       2.00000000      -0.10479225      -0.00000000      -0.00000000      -0.00000000      -0.00000000      -0.00000000
2
Lattice="20.0 0.0 0.0 0.0 20.0 0.0 0.0 0.0 20.0" Properties=species:S:1:pos:R:3:quaternions:R:4:c_diameter\[1\]:R:1:c_diameter\[2\]:R:1:c_diameter\[3\]:R:1:forces:R:3:torques:R:3 separation_distance=3.224288337924702 energy=-0.036776418680736896 pbc="F F F"
X       10.00000000      10.00000000      10.00000000       1.00000000       0.00000000       0.00000000       0.00000000       1.00000000       1.50000000       2.00000000       0.09837809       0.00000000       0.00000000      -0.00000000      -0.00000000      -0.00000000
X       13.22428834      10.00000000      10.00000000       1.00000000       0.00000000       0.00000000       0.00000000       1.00000000       1.50000000       2.00000000      -0.09837809      -0.00000000      -0.00000000      -0.00000000      -0.00000000      -0.00000000
2
Lattice="20.0 0.0 0.0 0.0 20.0 0.0 0.0 0.0 20.0" Properties=species:S:1:pos:R:3:quaternions:R:4:c_diameter\[1\]:R:1:c_diameter\[2\]:R:1:c_diameter\[3\]:R:1:forces:R:3:torques:R:3 separation_distance=3.2445668809305177 energy=-0.03484273529113838 pbc="F F F"
X       10.00000000      10.00000000      10.00000000       1.00000000       0.00000000       0.00000000       0.00000000       1.00000000       1.50000000       2.00000000       0.09240478       0.00000000       0.00000000      -0.00000000      -0.00000000      -0.00000000
X       13.24456688      10.00000000      10.00000000       1.00000000       0.00000000       0.00000000       0.00000000       1.00000000       1.50000000       2.00000000      -0.09240478      -0.00000000      -0.00000000      -0.00000000      -0.00000000      -0.00000000
2
Lattice="20.0 0.0 0.0 0.0 20.0 0.0 0.0 0.0 20.0" Properties=species:S:1:pos:R:3:quaternions:R:4:c_diameter\[1\]:R:1:c_diameter\[2\]:R:1:c_diameter\[3\]:R:1:forces:R:3:torques:R:3 separation_distance=3.2648454239363334 energy=-0.03302599612820389 pbc="F F F"
X       10.00000000      10.00000000      10.00000000       1.00000000       0.00000000       0.00000000       0.00000000       1.00000000       1.50000000       2.00000000       0.08683897       0.00000000       0.00000000      -0.00000000      -0.00000000      -0.00000000
X       13.26484542      10.00000000      10.00000000       1.00000000       0.00000000       0.00000000       0.00000000       1.00000000       1.50000000       2.00000000      -0.08683897      -0.00000000      -0.00000000      -0.00000000      -0.00000000      -0.00000000
2
Lattice="20.0 0.0 0.0 0.0 20.0 0.0 0.0 0.0 20.0" Properties=species:S:1:pos:R:3:quaternions:R:4:c_diameter\[1\]:R:1:c_diameter\[2\]:R:1:c_diameter\[3\]:R:1:forces:R:3:torques:R:3 separation_distance=3.285123966942149 energy=-0.03131825274728693 pbc="F F F"
X       10.00000000      10.00000000      10.00000000       1.00000000       0.00000000       0.00000000       0.00000000       1.00000000       1.50000000       2.00000000       0.08165003       0.00000000       0.00000000      -0.00000000      -0.00000000      -0.00000000
X       13.28512397      10.00000000      10.00000000       1.00000000       0.00000000       0.00000000       0.00000000       1.00000000       1.50000000       2.00000000      -0.08165003      -0.00000000      -0.00000000      -0.00000000      -0.00000000      -0.00000000
2
Lattice="20.0 0.0 0.0 0.0 20.0 0.0 0.0 0.0 20.0" Properties=species:S:1:pos:R:3:quaternions:R:4:c_diameter\[1\]:R:1:c_diameter\[2\]:R:1:c_diameter\[3\]:R:1:forces:R:3:torques:R:3 separation_distance=3.3054025099479647 energy=-0.0297121521996242 pbc="F F F"
X       10.00000000      10.00000000      10.00000000       1.00000000       0.00000000       0.00000000       0.00000000       1.00000000       1.50000000       2.00000000       0.07680981       0.00000000       0.00000000      -0.00000000      -0.00000000      -0.00000000
X       13.30540251      10.00000000      10.00000000       1.00000000       0.00000000       0.00000000       0.00000000       1.00000000       1.50000000       2.00000000      -0.07680981      -0.00000000      -0.00000000      -0.00000000      -0.00000000      -0.00000000
2
Lattice="20.0 0.0 0.0 0.0 20.0 0.0 0.0 0.0 20.0" Properties=species:S:1:pos:R:3:quaternions:R:4:c_diameter\[1\]:R:1:c_diameter\[2\]:R:1:c_diameter\[3\]:R:1:forces:R:3:torques:R:3 separation_distance=3.3256810529537804 energy=-0.028200888717222008 pbc="F F F"
X       10.00000000      10.00000000      10.00000000       1.00000000       0.00000000       0.00000000       0.00000000       1.00000000       1.50000000       2.00000000       0.07229246       0.00000000       0.00000000      -0.00000000      -0.00000000      -0.00000000
X       13.32568105      10.00000000      10.00000000       1.00000000       0.00000000       0.00000000       0.00000000       1.00000000       1.50000000       2.00000000      -0.07229246      -0.00000000      -0.00000000      -0.00000000      -0.00000000      -0.00000000
2
Lattice="20.0 0.0 0.0 0.0 20.0 0.0 0.0 0.0 20.0" Properties=species:S:1:pos:R:3:quaternions:R:4:c_diameter\[1\]:R:1:c_diameter\[2\]:R:1:c_diameter\[3\]:R:1:forces:R:3:torques:R:3 separation_distance=3.3459595959595965 energy=-0.02677815956683066 pbc="F F F"
X       10.00000000      10.00000000      10.00000000       1.00000000       0.00000000       0.00000000       0.00000000       1.00000000       1.50000000       2.00000000       0.06807419       0.00000000       0.00000000      -0.00000000      -0.00000000      -0.00000000
X       13.34595960      10.00000000      10.00000000       1.00000000       0.00000000       0.00000000       0.00000000       1.00000000       1.50000000       2.00000000      -0.06807419      -0.00000000      -0.00000000      -0.00000000      -0.00000000      -0.00000000
2
Lattice="20.0 0.0 0.0 0.0 20.0 0.0 0.0 0.0 20.0" Properties=species:S:1:pos:R:3:quaternions:R:4:c_diameter\[1\]:R:1:c_diameter\[2\]:R:1:c_diameter\[3\]:R:1:forces:R:3:torques:R:3 separation_distance=3.366238138965412 energy=-0.02543812469853993 pbc="F F F"
X       10.00000000      10.00000000      10.00000000       1.00000000       0.00000000       0.00000000       0.00000000       1.00000000       1.50000000       2.00000000       0.06413312       0.00000000       0.00000000      -0.00000000      -0.00000000      -0.00000000
X       13.36623814      10.00000000      10.00000000       1.00000000       0.00000000       0.00000000       0.00000000       1.00000000       1.50000000       2.00000000      -0.06413312      -0.00000000      -0.00000000      -0.00000000      -0.00000000      -0.00000000
2
Lattice="20.0 0.0 0.0 0.0 20.0 0.0 0.0 0.0 20.0" Properties=species:S:1:pos:R:3:quaternions:R:4:c_diameter\[1\]:R:1:c_diameter\[2\]:R:1:c_diameter\[3\]:R:1:forces:R:3:torques:R:3 separation_distance=3.386516681971228 energy=-0.024175369848457542 pbc="F F F"
X       10.00000000      10.00000000      10.00000000       1.00000000       0.00000000       0.00000000       0.00000000       1.00000000       1.50000000       2.00000000       0.06044912       0.00000000       0.00000000      -0.00000000      -0.00000000      -0.00000000
X       13.38651668      10.00000000      10.00000000       1.00000000       0.00000000       0.00000000       0.00000000       1.00000000       1.50000000       2.00000000      -0.06044912      -0.00000000      -0.00000000      -0.00000000      -0.00000000      -0.00000000
2
Lattice="20.0 0.0 0.0 0.0 20.0 0.0 0.0 0.0 20.0" Properties=species:S:1:pos:R:3:quaternions:R:4:c_diameter\[1\]:R:1:c_diameter\[2\]:R:1:c_diameter\[3\]:R:1:forces:R:3:torques:R:3 separation_distance=3.406795224977044 energy=-0.022984872785944428 pbc="F F F"
X       10.00000000      10.00000000      10.00000000       1.00000000       0.00000000       0.00000000       0.00000000       1.00000000       1.50000000       2.00000000       0.05700363       0.00000000       0.00000000      -0.00000000      -0.00000000      -0.00000000
X       13.40679522      10.00000000      10.00000000       1.00000000       0.00000000       0.00000000       0.00000000       1.00000000       1.50000000       2.00000000      -0.05700363      -0.00000000      -0.00000000      -0.00000000      -0.00000000      -0.00000000
2
Lattice="20.0 0.0 0.0 0.0 20.0 0.0 0.0 0.0 20.0" Properties=species:S:1:pos:R:3:quaternions:R:4:c_diameter\[1\]:R:1:c_diameter\[2\]:R:1:c_diameter\[3\]:R:1:forces:R:3:torques:R:3 separation_distance=3.4270737679828596 energy=-0.021861972424169086 pbc="F F F"
X       10.00000000      10.00000000      10.00000000       1.00000000       0.00000000       0.00000000       0.00000000       1.00000000       1.50000000       2.00000000       0.05377956       0.00000000       0.00000000      -0.00000000      -0.00000000      -0.00000000
X       13.42707377      10.00000000      10.00000000       1.00000000       0.00000000       0.00000000       0.00000000       1.00000000       1.50000000       2.00000000      -0.05377956      -0.00000000      -0.00000000      -0.00000000      -0.00000000      -0.00000000
2
Lattice="20.0 0.0 0.0 0.0 20.0 0.0 0.0 0.0 20.0" Properties=species:S:1:pos:R:3:quaternions:R:4:c_diameter\[1\]:R:1:c_diameter\[2\]:R:1:c_diameter\[3\]:R:1:forces:R:3:torques:R:3 separation_distance=3.4473523109886752 energy=-0.02080234053851227 pbc="F F F"
X       10.00000000      10.00000000      10.00000000       1.00000000       0.00000000       0.00000000       0.00000000       1.00000000       1.50000000       2.00000000       0.05076116       0.00000000       0.00000000      -0.00000000      -0.00000000      -0.00000000
X       13.44735231      10.00000000      10.00000000       1.00000000       0.00000000       0.00000000       0.00000000       1.00000000       1.50000000       2.00000000      -0.05076116      -0.00000000      -0.00000000      -0.00000000      -0.00000000      -0.00000000
2
Lattice="20.0 0.0 0.0 0.0 20.0 0.0 0.0 0.0 20.0" Properties=species:S:1:pos:R:3:quaternions:R:4:c_diameter\[1\]:R:1:c_diameter\[2\]:R:1:c_diameter\[3\]:R:1:forces:R:3:torques:R:3 separation_distance=3.467630853994491 energy=-0.019801955860798682 pbc="F F F"
X       10.00000000      10.00000000      10.00000000       1.00000000       0.00000000       0.00000000       0.00000000       1.00000000       1.50000000       2.00000000       0.04793390       0.00000000       0.00000000      -0.00000000      -0.00000000      -0.00000000
X       13.46763085      10.00000000      10.00000000       1.00000000       0.00000000       0.00000000       0.00000000       1.00000000       1.50000000       2.00000000      -0.04793390      -0.00000000      -0.00000000      -0.00000000      -0.00000000      -0.00000000
2
Lattice="20.0 0.0 0.0 0.0 20.0 0.0 0.0 0.0 20.0" Properties=species:S:1:pos:R:3:quaternions:R:4:c_diameter\[1\]:R:1:c_diameter\[2\]:R:1:c_diameter\[3\]:R:1:forces:R:3:torques:R:3 separation_distance=3.4879093970003066 energy=-0.01885708033863991 pbc="F F F"
X       10.00000000      10.00000000      10.00000000       1.00000000       0.00000000       0.00000000       0.00000000       1.00000000       1.50000000       2.00000000       0.04528435       0.00000000       0.00000000      -0.00000000      -0.00000000      -0.00000000
X       13.48790940      10.00000000      10.00000000       1.00000000       0.00000000       0.00000000       0.00000000       1.00000000       1.50000000       2.00000000      -0.04528435      -0.00000000      -0.00000000      -0.00000000      -0.00000000      -0.00000000
2
Lattice="20.0 0.0 0.0 0.0 20.0 0.0 0.0 0.0 20.0" Properties=species:S:1:pos:R:3:quaternions:R:4:c_diameter\[1\]:R:1:c_diameter\[2\]:R:1:c_diameter\[3\]:R:1:forces:R:3:torques:R:3 separation_distance=3.508187940006122 energy=-0.01796423736852504 pbc="F F F"
X       10.00000000      10.00000000      10.00000000       1.00000000       0.00000000       0.00000000       0.00000000       1.00000000       1.50000000       2.00000000       0.04280013       0.00000000       0.00000000      -0.00000000      -0.00000000      -0.00000000
X       13.50818794      10.00000000      10.00000000       1.00000000       0.00000000       0.00000000       0.00000000       1.00000000       1.50000000       2.00000000      -0.04280013      -0.00000000      -0.00000000      -0.00000000      -0.00000000      -0.00000000
2
Lattice="20.0 0.0 0.0 0.0 20.0 0.0 0.0 0.0 20.0" Properties=species:S:1:pos:R:3:quaternions:R:4:c_diameter\[1\]:R:1:c_diameter\[2\]:R:1:c_diameter\[3\]:R:1:forces:R:3:torques:R:3 separation_distance=3.528466483011938 energy=-0.017120191828858437 pbc="F F F"
X       10.00000000      10.00000000      10.00000000       1.00000000       0.00000000       0.00000000       0.00000000       1.00000000       1.50000000       2.00000000       0.04046980       0.00000000       0.00000000      -0.00000000      -0.00000000      -0.00000000
X       13.52846648      10.00000000      10.00000000       1.00000000       0.00000000       0.00000000       0.00000000       1.00000000       1.50000000       2.00000000      -0.04046980      -0.00000000      -0.00000000      -0.00000000      -0.00000000      -0.00000000
2
Lattice="20.0 0.0 0.0 0.0 20.0 0.0 0.0 0.0 20.0" Properties=species:S:1:pos:R:3:quaternions:R:4:c_diameter\[1\]:R:1:c_diameter\[2\]:R:1:c_diameter\[3\]:R:1:forces:R:3:torques:R:3 separation_distance=3.5487450260177535 energy=-0.016321931755076666 pbc="F F F"
X       10.00000000      10.00000000      10.00000000       1.00000000       0.00000000       0.00000000       0.00000000       1.00000000       1.50000000       2.00000000       0.03828278       0.00000000       0.00000000      -0.00000000      -0.00000000      -0.00000000
X       13.54874503      10.00000000      10.00000000       1.00000000       0.00000000       0.00000000       0.00000000       1.00000000       1.50000000       2.00000000      -0.03828278      -0.00000000      -0.00000000      -0.00000000      -0.00000000      -0.00000000
2
Lattice="20.0 0.0 0.0 0.0 20.0 0.0 0.0 0.0 20.0" Properties=species:S:1:pos:R:3:quaternions:R:4:c_diameter\[1\]:R:1:c_diameter\[2\]:R:1:c_diameter\[3\]:R:1:forces:R:3:torques:R:3 separation_distance=3.569023569023569 energy=-0.015566651513424493 pbc="F F F"
X       10.00000000      10.00000000      10.00000000       1.00000000       0.00000000       0.00000000       0.00000000       1.00000000       1.50000000       2.00000000       0.03622928       0.00000000       0.00000000      -0.00000000      -0.00000000      -0.00000000
X       13.56902357      10.00000000      10.00000000       1.00000000       0.00000000       0.00000000       0.00000000       1.00000000       1.50000000       2.00000000      -0.03622928      -0.00000000      -0.00000000      -0.00000000      -0.00000000      -0.00000000
2
Lattice="20.0 0.0 0.0 0.0 20.0 0.0 0.0 0.0 20.0" Properties=species:S:1:pos:R:3:quaternions:R:4:c_diameter\[1\]:R:1:c_diameter\[2\]:R:1:c_diameter\[3\]:R:1:forces:R:3:torques:R:3 separation_distance=3.5893021120293853 energy=-0.014851736343067684 pbc="F F F"
X       10.00000000      10.00000000      10.00000000       1.00000000       0.00000000       0.00000000       0.00000000       1.00000000       1.50000000       2.00000000       0.03430026       0.00000000       0.00000000      -0.00000000      -0.00000000      -0.00000000
X       13.58930211      10.00000000      10.00000000       1.00000000       0.00000000       0.00000000       0.00000000       1.00000000       1.50000000       2.00000000      -0.03430026      -0.00000000      -0.00000000      -0.00000000      -0.00000000      -0.00000000
2
Lattice="20.0 0.0 0.0 0.0 20.0 0.0 0.0 0.0 20.0" Properties=species:S:1:pos:R:3:quaternions:R:4:c_diameter\[1\]:R:1:c_diameter\[2\]:R:1:c_diameter\[3\]:R:1:forces:R:3:torques:R:3 separation_distance=3.609580655035201 energy=-0.01417474814809317 pbc="F F F"
X       10.00000000      10.00000000      10.00000000       1.00000000       0.00000000       0.00000000       0.00000000       1.00000000       1.50000000       2.00000000       0.03248734       0.00000000       0.00000000      -0.00000000      -0.00000000      -0.00000000
X       13.60958066      10.00000000      10.00000000       1.00000000       0.00000000       0.00000000       0.00000000       1.00000000       1.50000000       2.00000000      -0.03248734      -0.00000000      -0.00000000      -0.00000000      -0.00000000      -0.00000000
2
Lattice="20.0 0.0 0.0 0.0 20.0 0.0 0.0 0.0 20.0" Properties=species:S:1:pos:R:3:quaternions:R:4:c_diameter\[1\]:R:1:c_diameter\[2\]:R:1:c_diameter\[3\]:R:1:forces:R:3:torques:R:3 separation_distance=3.6298591980410166 energy=-0.01353341243170697 pbc="F F F"
X       10.00000000      10.00000000      10.00000000       1.00000000       0.00000000       0.00000000       0.00000000       1.00000000       1.50000000       2.00000000       0.03078274       0.00000000       0.00000000      -0.00000000      -0.00000000      -0.00000000
X       13.62985920      10.00000000      10.00000000       1.00000000       0.00000000       0.00000000       0.00000000       1.00000000       1.50000000       2.00000000      -0.03078274      -0.00000000      -0.00000000      -0.00000000      -0.00000000      -0.00000000
2
Lattice="20.0 0.0 0.0 0.0 20.0 0.0 0.0 0.0 20.0" Properties=species:S:1:pos:R:3:quaternions:R:4:c_diameter\[1\]:R:1:c_diameter\[2\]:R:1:c_diameter\[3\]:R:1:forces:R:3:torques:R:3 separation_distance=3.6501377410468328 energy=-0.012925606274693947 pbc="F F F"
X       10.00000000      10.00000000      10.00000000       1.00000000       0.00000000       0.00000000       0.00000000       1.00000000       1.50000000       2.00000000       0.02917928       0.00000000       0.00000000      -0.00000000      -0.00000000      -0.00000000
X       13.65013774      10.00000000      10.00000000       1.00000000       0.00000000       0.00000000       0.00000000       1.00000000       1.50000000       2.00000000      -0.02917928      -0.00000000      -0.00000000      -0.00000000      -0.00000000      -0.00000000
2
Lattice="20.0 0.0 0.0 0.0 20.0 0.0 0.0 0.0 20.0" Properties=species:S:1:pos:R:3:quaternions:R:4:c_diameter\[1\]:R:1:c_diameter\[2\]:R:1:c_diameter\[3\]:R:1:forces:R:3:torques:R:3 separation_distance=3.6704162840526484 energy=-0.01234934726904208 pbc="F F F"
X       10.00000000      10.00000000      10.00000000       1.00000000       0.00000000       0.00000000       0.00000000       1.00000000       1.50000000       2.00000000       0.02767029       0.00000000       0.00000000      -0.00000000      -0.00000000      -0.00000000
X       13.67041628      10.00000000      10.00000000       1.00000000       0.00000000       0.00000000       0.00000000       1.00000000       1.50000000       2.00000000      -0.02767029      -0.00000000      -0.00000000      -0.00000000      -0.00000000      -0.00000000
2
Lattice="20.0 0.0 0.0 0.0 20.0 0.0 0.0 0.0 20.0" Properties=species:S:1:pos:R:3:quaternions:R:4:c_diameter\[1\]:R:1:c_diameter\[2\]:R:1:c_diameter\[3\]:R:1:forces:R:3:torques:R:3 separation_distance=3.690694827058464 energy=-0.011802783325647093 pbc="F F F"
X       10.00000000      10.00000000      10.00000000       1.00000000       0.00000000       0.00000000       0.00000000       1.00000000       1.50000000       2.00000000       0.02624957       0.00000000       0.00000000      -0.00000000      -0.00000000      -0.00000000
X       13.69069483      10.00000000      10.00000000       1.00000000       0.00000000       0.00000000       0.00000000       1.00000000       1.50000000       2.00000000      -0.02624957      -0.00000000      -0.00000000      -0.00000000      -0.00000000      -0.00000000
2
Lattice="20.0 0.0 0.0 0.0 20.0 0.0 0.0 0.0 20.0" Properties=species:S:1:pos:R:3:quaternions:R:4:c_diameter\[1\]:R:1:c_diameter\[2\]:R:1:c_diameter\[3\]:R:1:forces:R:3:torques:R:3 separation_distance=3.7109733700642797 energy=-0.011284183282277985 pbc="F F F"
X       10.00000000      10.00000000      10.00000000       1.00000000       0.00000000       0.00000000       0.00000000       1.00000000       1.50000000       2.00000000       0.02491139       0.00000000       0.00000000      -0.00000000      -0.00000000      -0.00000000
X       13.71097337      10.00000000      10.00000000       1.00000000       0.00000000       0.00000000       0.00000000       1.00000000       1.50000000       2.00000000      -0.02491139      -0.00000000      -0.00000000      -0.00000000      -0.00000000      -0.00000000
2
Lattice="20.0 0.0 0.0 0.0 20.0 0.0 0.0 0.0 20.0" Properties=species:S:1:pos:R:3:quaternions:R:4:c_diameter\[1\]:R:1:c_diameter\[2\]:R:1:c_diameter\[3\]:R:1:forces:R:3:torques:R:3 separation_distance=3.7312519130700954 energy=-0.010791928244570405 pbc="F F F"
X       10.00000000      10.00000000      10.00000000       1.00000000       0.00000000       0.00000000       0.00000000       1.00000000       1.50000000       2.00000000       0.02365040       0.00000000       0.00000000      -0.00000000      -0.00000000      -0.00000000
X       13.73125191      10.00000000      10.00000000       1.00000000       0.00000000       0.00000000       0.00000000       1.00000000       1.50000000       2.00000000      -0.02365040      -0.00000000      -0.00000000      -0.00000000      -0.00000000      -0.00000000
2
Lattice="20.0 0.0 0.0 0.0 20.0 0.0 0.0 0.0 20.0" Properties=species:S:1:pos:R:3:quaternions:R:4:c_diameter\[1\]:R:1:c_diameter\[2\]:R:1:c_diameter\[3\]:R:1:forces:R:3:torques:R:3 separation_distance=3.751530456075911 energy=-0.010324503598789855 pbc="F F F"
X       10.00000000      10.00000000      10.00000000       1.00000000       0.00000000       0.00000000       0.00000000       1.00000000       1.50000000       2.00000000       0.02246166       0.00000000       0.00000000      -0.00000000      -0.00000000      -0.00000000
X       13.75153046      10.00000000      10.00000000       1.00000000       0.00000000       0.00000000       0.00000000       1.00000000       1.50000000       2.00000000      -0.02246166      -0.00000000      -0.00000000      -0.00000000      -0.00000000      -0.00000000
2
Lattice="20.0 0.0 0.0 0.0 20.0 0.0 0.0 0.0 20.0" Properties=species:S:1:pos:R:3:quaternions:R:4:c_diameter\[1\]:R:1:c_diameter\[2\]:R:1:c_diameter\[3\]:R:1:forces:R:3:torques:R:3 separation_distance=3.7718089990817267 energy=-0.009880491640526257 pbc="F F F"
X       10.00000000      10.00000000      10.00000000       1.00000000       0.00000000       0.00000000       0.00000000       1.00000000       1.50000000       2.00000000       0.02134055       0.00000000       0.00000000      -0.00000000      -0.00000000      -0.00000000
X       13.77180900      10.00000000      10.00000000       1.00000000       0.00000000       0.00000000       0.00000000       1.00000000       1.50000000       2.00000000      -0.02134055      -0.00000000      -0.00000000      -0.00000000      -0.00000000      -0.00000000
2
Lattice="20.0 0.0 0.0 0.0 20.0 0.0 0.0 0.0 20.0" Properties=species:S:1:pos:R:3:quaternions:R:4:c_diameter\[1\]:R:1:c_diameter\[2\]:R:1:c_diameter\[3\]:R:1:forces:R:3:torques:R:3 separation_distance=3.7920875420875424 energy=-0.009458564768400131 pbc="F F F"
X       10.00000000      10.00000000      10.00000000       1.00000000       0.00000000       0.00000000       0.00000000       1.00000000       1.50000000       2.00000000       0.02028280       0.00000000       0.00000000      -0.00000000      -0.00000000      -0.00000000
X       13.79208754      10.00000000      10.00000000       1.00000000       0.00000000       0.00000000       0.00000000       1.00000000       1.50000000       2.00000000      -0.02028280      -0.00000000      -0.00000000      -0.00000000      -0.00000000      -0.00000000
2
Lattice="20.0 0.0 0.0 0.0 20.0 0.0 0.0 0.0 20.0" Properties=species:S:1:pos:R:3:quaternions:R:4:c_diameter\[1\]:R:1:c_diameter\[2\]:R:1:c_diameter\[3\]:R:1:forces:R:3:torques:R:3 separation_distance=3.812366085093358 energy=-0.009057479196325383 pbc="F F F"
X       10.00000000      10.00000000      10.00000000       1.00000000       0.00000000       0.00000000       0.00000000       1.00000000       1.50000000       2.00000000       0.01928441       0.00000000       0.00000000      -0.00000000      -0.00000000      -0.00000000
X       13.81236609      10.00000000      10.00000000       1.00000000       0.00000000       0.00000000       0.00000000       1.00000000       1.50000000       2.00000000      -0.01928441      -0.00000000      -0.00000000      -0.00000000      -0.00000000      -0.00000000
2
Lattice="20.0 0.0 0.0 0.0 20.0 0.0 0.0 0.0 20.0" Properties=species:S:1:pos:R:3:quaternions:R:4:c_diameter\[1\]:R:1:c_diameter\[2\]:R:1:c_diameter\[3\]:R:1:forces:R:3:torques:R:3 separation_distance=3.832644628099174 energy=-0.008676069141927874 pbc="F F F"
X       10.00000000      10.00000000      10.00000000       1.00000000       0.00000000       0.00000000       0.00000000       1.00000000       1.50000000       2.00000000       0.01834168       0.00000000       0.00000000      -0.00000000      -0.00000000      -0.00000000
X       13.83264463      10.00000000      10.00000000       1.00000000       0.00000000       0.00000000       0.00000000       1.00000000       1.50000000       2.00000000      -0.01834168      -0.00000000      -0.00000000      -0.00000000      -0.00000000      -0.00000000
2
Lattice="20.0 0.0 0.0 0.0 20.0 0.0 0.0 0.0 20.0" Properties=species:S:1:pos:R:3:quaternions:R:4:c_diameter\[1\]:R:1:c_diameter\[2\]:R:1:c_diameter\[3\]:R:1:forces:R:3:torques:R:3 separation_distance=3.85292317110499 energy=-0.008313241452401896 pbc="F F F"
X       10.00000000      10.00000000      10.00000000       1.00000000       0.00000000       0.00000000       0.00000000       1.00000000       1.50000000       2.00000000       0.01745114       0.00000000       0.00000000      -0.00000000      -0.00000000      -0.00000000
X       13.85292317      10.00000000      10.00000000       1.00000000       0.00000000       0.00000000       0.00000000       1.00000000       1.50000000       2.00000000      -0.01745114      -0.00000000      -0.00000000      -0.00000000      -0.00000000      -0.00000000
2
Lattice="20.0 0.0 0.0 0.0 20.0 0.0 0.0 0.0 20.0" Properties=species:S:1:pos:R:3:quaternions:R:4:c_diameter\[1\]:R:1:c_diameter\[2\]:R:1:c_diameter\[3\]:R:1:forces:R:3:torques:R:3 separation_distance=3.8732017141108055 energy=-0.007967970632433053 pbc="F F F"
X       10.00000000      10.00000000      10.00000000       1.00000000       0.00000000       0.00000000       0.00000000       1.00000000       1.50000000       2.00000000       0.01660959       0.00000000       0.00000000      -0.00000000      -0.00000000      -0.00000000
X       13.87320171      10.00000000      10.00000000       1.00000000       0.00000000       0.00000000       0.00000000       1.00000000       1.50000000       2.00000000      -0.01660959      -0.00000000      -0.00000000      -0.00000000      -0.00000000      -0.00000000
2
Lattice="20.0 0.0 0.0 0.0 20.0 0.0 0.0 0.0 20.0" Properties=species:S:1:pos:R:3:quaternions:R:4:c_diameter\[1\]:R:1:c_diameter\[2\]:R:1:c_diameter\[3\]:R:1:forces:R:3:torques:R:3 separation_distance=3.8934802571166216 energy=-0.007639294241858813 pbc="F F F"
X       10.00000000      10.00000000      10.00000000       1.00000000       0.00000000       0.00000000       0.00000000       1.00000000       1.50000000       2.00000000       0.01581401       0.00000000       0.00000000      -0.00000000      -0.00000000      -0.00000000
X       13.89348026      10.00000000      10.00000000       1.00000000       0.00000000       0.00000000       0.00000000       1.00000000       1.50000000       2.00000000      -0.01581401      -0.00000000      -0.00000000      -0.00000000      -0.00000000      -0.00000000
2
Lattice="20.0 0.0 0.0 0.0 20.0 0.0 0.0 0.0 20.0" Properties=species:S:1:pos:R:3:quaternions:R:4:c_diameter\[1\]:R:1:c_diameter\[2\]:R:1:c_diameter\[3\]:R:1:forces:R:3:torques:R:3 separation_distance=3.9137588001224373 energy=-0.007326308633504152 pbc="F F F"
X       10.00000000      10.00000000      10.00000000       1.00000000       0.00000000       0.00000000       0.00000000       1.00000000       1.50000000       2.00000000       0.01506161       0.00000000       0.00000000      -0.00000000      -0.00000000      -0.00000000
X       13.91375880      10.00000000      10.00000000       1.00000000       0.00000000       0.00000000       0.00000000       1.00000000       1.50000000       2.00000000      -0.01506161      -0.00000000      -0.00000000      -0.00000000      -0.00000000      -0.00000000
2
Lattice="20.0 0.0 0.0 0.0 20.0 0.0 0.0 0.0 20.0" Properties=species:S:1:pos:R:3:quaternions:R:4:c_diameter\[1\]:R:1:c_diameter\[2\]:R:1:c_diameter\[3\]:R:1:forces:R:3:torques:R:3 separation_distance=3.934037343128253 energy=-0.007028165004147281 pbc="F F F"
X       10.00000000      10.00000000      10.00000000       1.00000000       0.00000000       0.00000000       0.00000000       1.00000000       1.50000000       2.00000000       0.01434978       0.00000000       0.00000000      -0.00000000      -0.00000000      -0.00000000
X       13.93403734      10.00000000      10.00000000       1.00000000       0.00000000       0.00000000       0.00000000       1.00000000       1.50000000       2.00000000      -0.01434978      -0.00000000      -0.00000000      -0.00000000      -0.00000000      -0.00000000
2
Lattice="20.0 0.0 0.0 0.0 20.0 0.0 0.0 0.0 20.0" Properties=species:S:1:pos:R:3:quaternions:R:4:c_diameter\[1\]:R:1:c_diameter\[2\]:R:1:c_diameter\[3\]:R:1:forces:R:3:torques:R:3 separation_distance=3.9543158861340686 energy=-0.006744065733861542 pbc="F F F"
X       10.00000000      10.00000000      10.00000000       1.00000000       0.00000000       0.00000000       0.00000000       1.00000000       1.50000000       2.00000000       0.01367607       0.00000000       0.00000000      -0.00000000      -0.00000000      -0.00000000
X       13.95431589      10.00000000      10.00000000       1.00000000       0.00000000       0.00000000       0.00000000       1.00000000       1.50000000       2.00000000      -0.01367607      -0.00000000      -0.00000000      -0.00000000      -0.00000000      -0.00000000
2
Lattice="20.0 0.0 0.0 0.0 20.0 0.0 0.0 0.0 20.0" Properties=species:S:1:pos:R:3:quaternions:R:4:c_diameter\[1\]:R:1:c_diameter\[2\]:R:1:c_diameter\[3\]:R:1:forces:R:3:torques:R:3 separation_distance=3.9745944291398843 energy=-0.006473260991065545 pbc="F F F"
X       10.00000000      10.00000000      10.00000000       1.00000000       0.00000000       0.00000000       0.00000000       1.00000000       1.50000000       2.00000000       0.01303822       0.00000000       0.00000000      -0.00000000      -0.00000000      -0.00000000
X       13.97459443      10.00000000      10.00000000       1.00000000       0.00000000       0.00000000       0.00000000       1.00000000       1.50000000       2.00000000      -0.01303822      -0.00000000      -0.00000000      -0.00000000      -0.00000000      -0.00000000
2
Lattice="20.0 0.0 0.0 0.0 20.0 0.0 0.0 0.0 20.0" Properties=species:S:1:pos:R:3:quaternions:R:4:c_diameter\[1\]:R:1:c_diameter\[2\]:R:1:c_diameter\[3\]:R:1:forces:R:3:torques:R:3 separation_distance=3.9948729721457 energy=-0.00621504558251425 pbc="F F F"
X       10.00000000      10.00000000      10.00000000       1.00000000       0.00000000       0.00000000       0.00000000       1.00000000       1.50000000       2.00000000       0.01243409       0.00000000       0.00000000      -0.00000000      -0.00000000      -0.00000000
X       13.99487297      10.00000000      10.00000000       1.00000000       0.00000000       0.00000000       0.00000000       1.00000000       1.50000000       2.00000000      -0.01243409      -0.00000000      -0.00000000      -0.00000000      -0.00000000      -0.00000000
2
Lattice="20.0 0.0 0.0 0.0 20.0 0.0 0.0 0.0 20.0" Properties=species:S:1:pos:R:3:quaternions:R:4:c_diameter\[1\]:R:1:c_diameter\[2\]:R:1:c_diameter\[3\]:R:1:forces:R:3:torques:R:3 separation_distance=4.015151515151516 energy=-0.005968756029195732 pbc="F F F"
X       10.00000000      10.00000000      10.00000000       1.00000000       0.00000000       0.00000000       0.00000000       1.00000000       1.50000000       2.00000000       0.01186170       0.00000000       0.00000000      -0.00000000      -0.00000000      -0.00000000
X       14.01515152      10.00000000      10.00000000       1.00000000       0.00000000       0.00000000       0.00000000       1.00000000       1.50000000       2.00000000      -0.01186170      -0.00000000      -0.00000000      -0.00000000      -0.00000000      -0.00000000
