2
Lattice="20.0 0.0 0.0 0.0 20.0 0.0 0.0 0.0 20.0" Properties=species:S:1:pos:R:3:quaternions:R:4:c_diameter\[1\]:R:1:c_diameter\[2\]:R:1:c_diameter\[3\]:R:1:forces:R:3:torques:R:3 separation_distance=2.5757575757575757 energy=-0.35062006789846745 pbc="F F F"
X       10.00000000      10.00000000      10.00000000       1.00000000       0.00000000       0.00000000       0.00000000       1.00000000       1.50000000       2.00000000     -10.13817430       0.00000000       0.00000000      -0.00000000      -0.00000000      -0.00000000
X       12.57575758      10.00000000      10.00000000       0.70710678       0.00000000       0.00000000       0.70710678       1.00000000       1.50000000       2.00000000      10.13817430      -0.00000000      -0.00000000      -0.00000000      -0.00000000       0.00000000
2
Lattice="20.0 0.0 0.0 0.0 20.0 0.0 0.0 0.0 20.0" Properties=species:S:1:pos:R:3:quaternions:R:4:c_diameter\[1\]:R:1:c_diameter\[2\]:R:1:c_diameter\[3\]:R:1:forces:R:3:torques:R:3 separation_distance=2.5887664524028158 energy=-0.46580087189072217 pbc="F F F"
X       10.00000000      10.00000000      10.00000000       1.00000000       0.00000000       0.00000000       0.00000000       1.00000000       1.50000000       2.00000000      -7.65785034       0.00000000       0.00000000      -0.00000000      -0.00000000      -0.00000000
X       12.58876645      10.00000000      10.00000000       0.70710678       0.00000000       0.00000000       0.70710678       1.00000000       1.50000000       2.00000000       7.65785034      -0.00000000      -0.00000000      -0.00000000      -0.00000000       0.00000000
2
Lattice="20.0 0.0 0.0 0.0 20.0 0.0 0.0 0.0 20.0" Properties=species:S:1:pos:R:3:quaternions:R:4:c_diameter\[1\]:R:1:c_diameter\[2\]:R:1:c_diameter\[3\]:R:1:forces:R:3:torques:R:3 separation_distance=2.6017753290480563 energy=-0.5519275882491972 pbc="F F F"
X       10.00000000      10.00000000      10.00000000       1.00000000       0.00000000       0.00000000       0.00000000       1.00000000       1.50000000       2.00000000      -5.65499475       0.00000000       0.00000000      -0.00000000      -0.00000000      -0.00000000
X       12.60177533      10.00000000      10.00000000       0.70710678       0.00000000       0.00000000       0.70710678       1.00000000       1.50000000       2.00000000       5.65499475      -0.00000000      -0.00000000      -0.00000000      -0.00000000       0.00000000
2
Lattice="20.0 0.0 0.0 0.0 20.0 0.0 0.0 0.0 20.0" Properties=species:S:1:pos:R:3:quaternions:R:4:c_diameter\[1\]:R:1:c_diameter\[2\]:R:1:c_diameter\[3\]:R:1:forces:R:3:torques:R:3 separation_distance=2.6147842056932964 energy=-0.6146146544448732 pbc="F F F"
X       10.00000000      10.00000000      10.00000000       1.00000000       0.00000000       0.00000000       0.00000000       1.00000000       1.50000000       2.00000000      -4.04093302       0.00000000       0.00000000      -0.00000000      -0.00000000      -0.00000000
X       12.61478421      10.00000000      10.00000000       0.70710678       0.00000000       0.00000000       0.70710678       1.00000000       1.50000000       2.00000000       4.04093302      -0.00000000      -0.00000000      -0.00000000      -0.00000000       0.00000000
2
Lattice="20.0 0.0 0.0 0.0 20.0 0.0 0.0 0.0 20.0" Properties=species:S:1:pos:R:3:quaternions:R:4:c_diameter\[1\]:R:1:c_diameter\[2\]:R:1:c_diameter\[3\]:R:1:forces:R:3:torques:R:3 separation_distance=2.627793082338537 energy=-0.6584354351134816 pbc="F F F"
X       10.00000000      10.00000000      10.00000000       1.00000000       0.00000000       0.00000000       0.00000000       1.00000000       1.50000000       2.00000000      -2.74368178       0.00000000       0.00000000      -0.00000000      -0.00000000      -0.00000000
X       12.62779308      10.00000000      10.00000000       0.70710678       0.00000000       0.00000000       0.70710678       1.00000000       1.50000000       2.00000000       2.74368178      -0.00000000      -0.00000000      -0.00000000      -0.00000000       0.00000000
2
Lattice="20.0 0.0 0.0 0.0 20.0 0.0 0.0 0.0 20.0" Properties=species:S:1:pos:R:3:quaternions:R:4:c_diameter\[1\]:R:1:c_diameter\[2\]:R:1:c_diameter\[3\]:R:1:forces:R:3:torques:R:3 separation_distance=2.640801958983777 energy=-0.6871175116567767 pbc="F F F"
X       10.00000000      10.00000000      10.00000000       1.00000000       0.00000000       0.00000000       0.00000000       1.00000000       1.50000000       2.00000000      -1.70471209       0.00000000       0.00000000      -0.00000000      -0.00000000      -0.00000000
X       12.64080196      10.00000000      10.00000000       0.70710678       0.00000000       0.00000000       0.70710678       1.00000000       1.50000000       2.00000000       1.70471209      -0.00000000      -0.00000000      -0.00000000      -0.00000000       0.00000000
2
Lattice="20.0 0.0 0.0 0.0 20.0 0.0 0.0 0.0 20.0" Properties=species:S:1:pos:R:3:quaternions:R:4:c_diameter\[1\]:R:1:c_diameter\[2\]:R:1:c_diameter\[3\]:R:1:forces:R:3:torques:R:3 separation_distance=2.6538108356290175 energy=-0.7037002615118033 pbc="F F F"
X       10.00000000      10.00000000      10.00000000       1.00000000       0.00000000       0.00000000       0.00000000       1.00000000       1.50000000       2.00000000      -0.87636307       0.00000000       0.00000000      -0.00000000      -0.00000000      -0.00000000
X       12.65381084      10.00000000      10.00000000       0.70710678       0.00000000       0.00000000       0.70710678       1.00000000       1.50000000       2.00000000       0.87636307      -0.00000000      -0.00000000      -0.00000000      -0.00000000       0.00000000
2
Lattice="20.0 0.0 0.0 0.0 20.0 0.0 0.0 0.0 20.0" Properties=species:S:1:pos:R:3:quaternions:R:4:c_diameter\[1\]:R:1:c_diameter\[2\]:R:1:c_diameter\[3\]:R:1:forces:R:3:torques:R:3 separation_distance=2.6668197122742576 energy=-0.7106622688555941 pbc="F F F"
X       10.00000000      10.00000000      10.00000000       1.00000000       0.00000000       0.00000000       0.00000000       1.00000000       1.50000000       2.00000000      -0.21977021       0.00000000       0.00000000      -0.00000000      -0.00000000       0.00000000
X       12.66681971      10.00000000      10.00000000       0.70710678       0.00000000       0.00000000       0.70710678       1.00000000       1.50000000       2.00000000       0.21977021      -0.00000000      -0.00000000      -0.00000000      -0.00000000       0.00000000
2
Lattice="20.0 0.0 0.0 0.0 20.0 0.0 0.0 0.0 20.0" Properties=species:S:1:pos:R:3:quaternions:R:4:c_diameter\[1\]:R:1:c_diameter\[2\]:R:1:c_diameter\[3\]:R:1:forces:R:3:torques:R:3 separation_distance=2.6798285889194977 energy=-0.710024543690579 pbc="F F F"
X       10.00000000      10.00000000      10.00000000       1.00000000       0.00000000       0.00000000       0.00000000       1.00000000       1.50000000       2.00000000       0.29679783       0.00000000       0.00000000      -0.00000000      -0.00000000       0.00000000
X       12.67982859      10.00000000      10.00000000       0.70710678       0.00000000       0.00000000       0.70710678       1.00000000       1.50000000       2.00000000      -0.29679783      -0.00000000      -0.00000000      -0.00000000      -0.00000000       0.00000000
2
Lattice="20.0 0.0 0.0 0.0 20.0 0.0 0.0 0.0 20.0" Properties=species:S:1:pos:R:3:quaternions:R:4:c_diameter\[1\]:R:1:c_diameter\[2\]:R:1:c_diameter\[3\]:R:1:forces:R:3:torques:R:3 separation_distance=2.6928374655647382 energy=-0.7034342982351895 pbc="F F F"
X       10.00000000      10.00000000      10.00000000       1.00000000       0.00000000       0.00000000       0.00000000       1.00000000       1.50000000       2.00000000       0.69927750       0.00000000       0.00000000      -0.00000000      -0.00000000       0.00000000
X       12.69283747      10.00000000      10.00000000       0.70710678       0.00000000       0.00000000       0.70710678       1.00000000       1.50000000       2.00000000      -0.69927750      -0.00000000      -0.00000000      -0.00000000      -0.00000000       0.00000000
2
Lattice="20.0 0.0 0.0 0.0 20.0 0.0 0.0 0.0 20.0" Properties=species:S:1:pos:R:3:quaternions:R:4:c_diameter\[1\]:R:1:c_diameter\[2\]:R:1:c_diameter\[3\]:R:1:forces:R:3:torques:R:3 separation_distance=2.7058463422099783 energy=-0.6922330632004454 pbc="F F F"
X       10.00000000      10.00000000      10.00000000       1.00000000       0.00000000       0.00000000       0.00000000       1.00000000       1.50000000       2.00000000       1.00888936       0.00000000       0.00000000      -0.00000000      -0.00000000       0.00000000
X       12.70584634      10.00000000      10.00000000       0.70710678       0.00000000       0.00000000       0.70710678       1.00000000       1.50000000       2.00000000      -1.00888936      -0.00000000      -0.00000000      -0.00000000      -0.00000000       0.00000000
2
Lattice="20.0 0.0 0.0 0.0 20.0 0.0 0.0 0.0 20.0" Properties=species:S:1:pos:R:3:quaternions:R:4:c_diameter\[1\]:R:1:c_diameter\[2\]:R:1:c_diameter\[3\]:R:1:forces:R:3:torques:R:3 separation_distance=2.718855218855219 energy=-0.6775121640847904 pbc="F F F"
X       10.00000000      10.00000000      10.00000000       1.00000000       0.00000000       0.00000000       0.00000000       1.00000000       1.50000000       2.00000000       1.24301005       0.00000000       0.00000000      -0.00000000      -0.00000000       0.00000000
X       12.71885522      10.00000000      10.00000000       0.70710678       0.00000000       0.00000000       0.70710678       1.00000000       1.50000000       2.00000000      -1.24301005      -0.00000000      -0.00000000      -0.00000000      -0.00000000      -0.00000000
2
Lattice="20.0 0.0 0.0 0.0 20.0 0.0 0.0 0.0 20.0" Properties=species:S:1:pos:R:3:quaternions:R:4:c_diameter\[1\]:R:1:c_diameter\[2\]:R:1:c_diameter\[3\]:R:1:forces:R:3:torques:R:3 separation_distance=2.731864095500459 energy=-0.6601579744894522 pbc="F F F"
X       10.00000000      10.00000000      10.00000000       1.00000000       0.00000000       0.00000000       0.00000000       1.00000000       1.50000000       2.00000000       1.41587813       0.00000000       0.00000000      -0.00000000      -0.00000000       0.00000000
X       12.73186410      10.00000000      10.00000000       0.70710678       0.00000000       0.00000000       0.70710678       1.00000000       1.50000000       2.00000000      -1.41587813      -0.00000000      -0.00000000      -0.00000000      -0.00000000      -0.00000000
2
Lattice="20.0 0.0 0.0 0.0 20.0 0.0 0.0 0.0 20.0" Properties=species:S:1:pos:R:3:quaternions:R:4:c_diameter\[1\]:R:1:c_diameter\[2\]:R:1:c_diameter\[3\]:R:1:forces:R:3:torques:R:3 separation_distance=2.7448729721456995 energy=-0.6408888851544401 pbc="F F F"
X       10.00000000      10.00000000      10.00000000       1.00000000       0.00000000       0.00000000       0.00000000       1.00000000       1.50000000       2.00000000       1.53916671       0.00000000       0.00000000      -0.00000000      -0.00000000       0.00000000
X       12.74487297      10.00000000      10.00000000       0.70710678       0.00000000       0.00000000       0.70710678       1.00000000       1.50000000       2.00000000      -1.53916671      -0.00000000      -0.00000000      -0.00000000      -0.00000000      -0.00000000
2
Lattice="20.0 0.0 0.0 0.0 20.0 0.0 0.0 0.0 20.0" Properties=species:S:1:pos:R:3:quaternions:R:4:c_diameter\[1\]:R:1:c_diameter\[2\]:R:1:c_diameter\[3\]:R:1:forces:R:3:torques:R:3 separation_distance=2.7578818487909396 energy=-0.6202855471779339 pbc="F F F"
X       10.00000000      10.00000000      10.00000000       1.00000000       0.00000000       0.00000000       0.00000000       1.00000000       1.50000000       2.00000000       1.62244872       0.00000000       0.00000000      -0.00000000      -0.00000000       0.00000000
X       12.75788185      10.00000000      10.00000000       0.70710678       0.00000000       0.00000000       0.70710678       1.00000000       1.50000000       2.00000000      -1.62244872      -0.00000000      -0.00000000      -0.00000000      -0.00000000      -0.00000000
2
Lattice="20.0 0.0 0.0 0.0 20.0 0.0 0.0 0.0 20.0" Properties=species:S:1:pos:R:3:quaternions:R:4:c_diameter\[1\]:R:1:c_diameter\[2\]:R:1:c_diameter\[3\]:R:1:forces:R:3:torques:R:3 separation_distance=2.77089072543618 energy=-0.5988156448840485 pbc="F F F"
X       10.00000000      10.00000000      10.00000000       1.00000000       0.00000000       0.00000000       0.00000000       1.00000000       1.50000000       2.00000000       1.67357572       0.00000000       0.00000000      -0.00000000      -0.00000000       0.00000000
X       12.77089073      10.00000000      10.00000000       0.70710678       0.00000000       0.00000000       0.70710678       1.00000000       1.50000000       2.00000000      -1.67357572      -0.00000000      -0.00000000      -0.00000000      -0.00000000      -0.00000000
2
Lattice="20.0 0.0 0.0 0.0 20.0 0.0 0.0 0.0 20.0" Properties=species:S:1:pos:R:3:quaternions:R:4:c_diameter\[1\]:R:1:c_diameter\[2\]:R:1:c_diameter\[3\]:R:1:forces:R:3:torques:R:3 separation_distance=2.78389960208142 energy=-0.5768542117972391 pbc="F F F"
X       10.00000000      10.00000000      10.00000000       1.00000000       0.00000000       0.00000000       0.00000000       1.00000000       1.50000000       2.00000000       1.69898679       0.00000000       0.00000000      -0.00000000      -0.00000000       0.00000000
X       12.78389960      10.00000000      10.00000000       0.70710678       0.00000000       0.00000000       0.70710678       1.00000000       1.50000000       2.00000000      -1.69898679      -0.00000000      -0.00000000      -0.00000000      -0.00000000      -0.00000000
2
Lattice="20.0 0.0 0.0 0.0 20.0 0.0 0.0 0.0 20.0" Properties=species:S:1:pos:R:3:quaternions:R:4:c_diameter\[1\]:R:1:c_diameter\[2\]:R:1:c_diameter\[3\]:R:1:forces:R:3:torques:R:3 separation_distance=2.7969084787266603 energy=-0.5547003094540052 pbc="F F F"
X       10.00000000      10.00000000      10.00000000       1.00000000       0.00000000       0.00000000       0.00000000       1.00000000       1.50000000       2.00000000       1.70396081       0.00000000       0.00000000      -0.00000000      -0.00000000       0.00000000
X       12.79690848      10.00000000      10.00000000       0.70710678       0.00000000       0.00000000       0.70710678       1.00000000       1.50000000       2.00000000      -1.70396081      -0.00000000      -0.00000000      -0.00000000      -0.00000000      -0.00000000
2
Lattice="20.0 0.0 0.0 0.0 20.0 0.0 0.0 0.0 20.0" Properties=species:S:1:pos:R:3:quaternions:R:4:c_diameter\[1\]:R:1:c_diameter\[2\]:R:1:c_diameter\[3\]:R:1:forces:R:3:torques:R:3 separation_distance=2.809917355371901 energy=-0.5325907333636812 pbc="F F F"
X       10.00000000      10.00000000      10.00000000       1.00000000       0.00000000       0.00000000       0.00000000       1.00000000       1.50000000       2.00000000       1.69282280       0.00000000       0.00000000      -0.00000000      -0.00000000       0.00000000
X       12.80991736      10.00000000      10.00000000       0.70710678       0.00000000       0.00000000       0.70710678       1.00000000       1.50000000       2.00000000      -1.69282280      -0.00000000      -0.00000000      -0.00000000      -0.00000000      -0.00000000
2
Lattice="20.0 0.0 0.0 0.0 20.0 0.0 0.0 0.0 20.0" Properties=species:S:1:pos:R:3:quaternions:R:4:c_diameter\[1\]:R:1:c_diameter\[2\]:R:1:c_diameter\[3\]:R:1:forces:R:3:torques:R:3 separation_distance=2.822926232017141 energy=-0.5107112854795354 pbc="F F F"
X       10.00000000      10.00000000      10.00000000       1.00000000       0.00000000       0.00000000       0.00000000       1.00000000       1.50000000       2.00000000       1.66911300       0.00000000       0.00000000      -0.00000000      -0.00000000       0.00000000
X       12.82292623      10.00000000      10.00000000       0.70710678       0.00000000       0.00000000       0.70710678       1.00000000       1.50000000       2.00000000      -1.66911300      -0.00000000      -0.00000000      -0.00000000      -0.00000000      -0.00000000
2
Lattice="20.0 0.0 0.0 0.0 20.0 0.0 0.0 0.0 20.0" Properties=species:S:1:pos:R:3:quaternions:R:4:c_diameter\[1\]:R:1:c_diameter\[2\]:R:1:c_diameter\[3\]:R:1:forces:R:3:torques:R:3 separation_distance=2.8359351086623814 energy=-0.4892060518788441 pbc="F F F"
X       10.00000000      10.00000000      10.00000000       1.00000000       0.00000000       0.00000000       0.00000000       1.00000000       1.50000000       2.00000000       1.63572551       0.00000000       0.00000000      -0.00000000      -0.00000000       0.00000000
X       12.83593511      10.00000000      10.00000000       0.70710678       0.00000000       0.00000000       0.70710678       1.00000000       1.50000000       2.00000000      -1.63572551      -0.00000000      -0.00000000      -0.00000000      -0.00000000      -0.00000000
2
Lattice="20.0 0.0 0.0 0.0 20.0 0.0 0.0 0.0 20.0" Properties=species:S:1:pos:R:3:quaternions:R:4:c_diameter\[1\]:R:1:c_diameter\[2\]:R:1:c_diameter\[3\]:R:1:forces:R:3:torques:R:3 separation_distance=2.8489439853076215 energy=-0.46818504309237435 pbc="F F F"
X       10.00000000      10.00000000      10.00000000       1.00000000       0.00000000       0.00000000       0.00000000       1.00000000       1.50000000       2.00000000       1.59502221       0.00000000       0.00000000      -0.00000000      -0.00000000       0.00000000
X       12.84894399      10.00000000      10.00000000       0.70710678       0.00000000       0.00000000       0.70710678       1.00000000       1.50000000       2.00000000      -1.59502221      -0.00000000      -0.00000000      -0.00000000      -0.00000000      -0.00000000
2
Lattice="20.0 0.0 0.0 0.0 20.0 0.0 0.0 0.0 20.0" Properties=species:S:1:pos:R:3:quaternions:R:4:c_diameter\[1\]:R:1:c_diameter\[2\]:R:1:c_diameter\[3\]:R:1:forces:R:3:torques:R:3 separation_distance=2.8619528619528616 energy=-0.4477304888015359 pbc="F F F"
X       10.00000000      10.00000000      10.00000000       1.00000000       0.00000000       0.00000000       0.00000000       1.00000000       1.50000000       2.00000000       1.54892643       0.00000000       0.00000000      -0.00000000      -0.00000000       0.00000000
X       12.86195286      10.00000000      10.00000000       0.70710678       0.00000000       0.00000000       0.70710678       1.00000000       1.50000000       2.00000000      -1.54892643      -0.00000000      -0.00000000      -0.00000000      -0.00000000      -0.00000000
2
Lattice="20.0 0.0 0.0 0.0 20.0 0.0 0.0 0.0 20.0" Properties=species:S:1:pos:R:3:quaternions:R:4:c_diameter\[1\]:R:1:c_diameter\[2\]:R:1:c_diameter\[3\]:R:1:forces:R:3:torques:R:3 separation_distance=2.874961738598102 energy=-0.4279020253647697 pbc="F F F"
X       10.00000000      10.00000000      10.00000000       1.00000000       0.00000000       0.00000000       0.00000000       1.00000000       1.50000000       2.00000000       1.49900000       0.00000000       0.00000000      -0.00000000      -0.00000000       0.00000000
X       12.87496174      10.00000000      10.00000000       0.70710678       0.00000000       0.00000000       0.70710678       1.00000000       1.50000000       2.00000000      -1.49900000      -0.00000000      -0.00000000      -0.00000000      -0.00000000      -0.00000000
2
Lattice="20.0 0.0 0.0 0.0 20.0 0.0 0.0 0.0 20.0" Properties=species:S:1:pos:R:3:quaternions:R:4:c_diameter\[1\]:R:1:c_diameter\[2\]:R:1:c_diameter\[3\]:R:1:forces:R:3:torques:R:3 separation_distance=2.887970615243342 energy=-0.40874097139998494 pbc="F F F"
X       10.00000000      10.00000000      10.00000000       1.00000000       0.00000000       0.00000000       0.00000000       1.00000000       1.50000000       2.00000000       1.44650686       0.00000000       0.00000000      -0.00000000      -0.00000000       0.00000000
X       12.88797062      10.00000000      10.00000000       0.70710678       0.00000000       0.00000000       0.70710678       1.00000000       1.50000000       2.00000000      -1.44650686      -0.00000000      -0.00000000      -0.00000000      -0.00000000      -0.00000000
2
Lattice="20.0 0.0 0.0 0.0 20.0 0.0 0.0 0.0 20.0" Properties=species:S:1:pos:R:3:quaternions:R:4:c_diameter\[1\]:R:1:c_diameter\[2\]:R:1:c_diameter\[3\]:R:1:forces:R:3:torques:R:3 separation_distance=2.9009794918885827 energy=-0.3902738514889659 pbc="F F F"
X       10.00000000      10.00000000      10.00000000       1.00000000       0.00000000       0.00000000       0.00000000       1.00000000       1.50000000       2.00000000       1.39246545       0.00000000       0.00000000      -0.00000000      -0.00000000       0.00000000
X       12.90097949      10.00000000      10.00000000       0.70710678       0.00000000       0.00000000       0.70710678       1.00000000       1.50000000       2.00000000      -1.39246545      -0.00000000      -0.00000000      -0.00000000      -0.00000000      -0.00000000
2
Lattice="20.0 0.0 0.0 0.0 20.0 0.0 0.0 0.0 20.0" Properties=species:S:1:pos:R:3:quaternions:R:4:c_diameter\[1\]:R:1:c_diameter\[2\]:R:1:c_diameter\[3\]:R:1:forces:R:3:torques:R:3 separation_distance=2.913988368533823 energy=-0.3725152994256825 pbc="F F F"
X       10.00000000      10.00000000      10.00000000       1.00000000       0.00000000       0.00000000       0.00000000       1.00000000       1.50000000       2.00000000       1.33769197       0.00000000       0.00000000      -0.00000000      -0.00000000       0.00000000
X       12.91398837      10.00000000      10.00000000       0.70710678       0.00000000       0.00000000       0.70710678       1.00000000       1.50000000       2.00000000      -1.33769197      -0.00000000      -0.00000000      -0.00000000      -0.00000000      -0.00000000
2
Lattice="20.0 0.0 0.0 0.0 20.0 0.0 0.0 0.0 20.0" Properties=species:S:1:pos:R:3:quaternions:R:4:c_diameter\[1\]:R:1:c_diameter\[2\]:R:1:c_diameter\[3\]:R:1:forces:R:3:torques:R:3 separation_distance=2.9269972451790633 energy=-0.3554704490566624 pbc="F F F"
X       10.00000000      10.00000000      10.00000000       1.00000000       0.00000000       0.00000000       0.00000000       1.00000000       1.50000000       2.00000000       1.28283617       0.00000000       0.00000000      -0.00000000      -0.00000000       0.00000000
X       12.92699725      10.00000000      10.00000000       0.70710678       0.00000000       0.00000000       0.70710678       1.00000000       1.50000000       2.00000000      -1.28283617      -0.00000000      -0.00000000      -0.00000000      -0.00000000      -0.00000000
2
Lattice="20.0 0.0 0.0 0.0 20.0 0.0 0.0 0.0 20.0" Properties=species:S:1:pos:R:3:quaternions:R:4:c_diameter\[1\]:R:1:c_diameter\[2\]:R:1:c_diameter\[3\]:R:1:forces:R:3:torques:R:3 separation_distance=2.9400061218243034 energy=-0.3391369016577759 pbc="F F F"
X       10.00000000      10.00000000      10.00000000       1.00000000       0.00000000       0.00000000       0.00000000       1.00000000       1.50000000       2.00000000       1.22841084       0.00000000       0.00000000      -0.00000000      -0.00000000       0.00000000
X       12.94000612      10.00000000      10.00000000       0.70710678       0.00000000       0.00000000       0.70710678       1.00000000       1.50000000       2.00000000      -1.22841084      -0.00000000      -0.00000000      -0.00000000      -0.00000000      -0.00000000
2
Lattice="20.0 0.0 0.0 0.0 20.0 0.0 0.0 0.0 20.0" Properties=species:S:1:pos:R:3:quaternions:R:4:c_diameter\[1\]:R:1:c_diameter\[2\]:R:1:c_diameter\[3\]:R:1:forces:R:3:torques:R:3 separation_distance=2.953014998469544 energy=-0.3235063431535599 pbc="F F F"
X       10.00000000      10.00000000      10.00000000       1.00000000       0.00000000       0.00000000       0.00000000       1.00000000       1.50000000       2.00000000       1.17481630       0.00000000       0.00000000      -0.00000000      -0.00000000       0.00000000
X       12.95301500      10.00000000      10.00000000       0.70710678       0.00000000       0.00000000       0.70710678       1.00000000       1.50000000       2.00000000      -1.17481630      -0.00000000      -0.00000000      -0.00000000      -0.00000000      -0.00000000
2
Lattice="20.0 0.0 0.0 0.0 20.0 0.0 0.0 0.0 20.0" Properties=species:S:1:pos:R:3:quaternions:R:4:c_diameter\[1\]:R:1:c_diameter\[2\]:R:1:c_diameter\[3\]:R:1:forces:R:3:torques:R:3 separation_distance=2.966023875114784 energy=-0.30856587166484445 pbc="F F F"
X       10.00000000      10.00000000      10.00000000       1.00000000       0.00000000       0.00000000       0.00000000       1.00000000       1.50000000       2.00000000       1.12236063       0.00000000       0.00000000      -0.00000000      -0.00000000       0.00000000
X       12.96602388      10.00000000      10.00000000       0.70710678       0.00000000       0.00000000       0.70710678       1.00000000       1.50000000       2.00000000      -1.12236063      -0.00000000      -0.00000000      -0.00000000      -0.00000000      -0.00000000
2
Lattice="20.0 0.0 0.0 0.0 20.0 0.0 0.0 0.0 20.0" Properties=species:S:1:pos:R:3:quaternions:R:4:c_diameter\[1\]:R:1:c_diameter\[2\]:R:1:c_diameter\[3\]:R:1:forces:R:3:torques:R:3 separation_distance=2.979032751760024 energy=-0.2942990853449241 pbc="F F F"
X       10.00000000      10.00000000      10.00000000       1.00000000       0.00000000       0.00000000       0.00000000       1.00000000       1.50000000       2.00000000       1.07127639       0.00000000       0.00000000      -0.00000000      -0.00000000       0.00000000
X       12.97903275      10.00000000      10.00000000       0.70710678       0.00000000       0.00000000       0.70710678       1.00000000       1.50000000       2.00000000      -1.07127639      -0.00000000      -0.00000000      -0.00000000      -0.00000000      -0.00000000
2
Lattice="20.0 0.0 0.0 0.0 20.0 0.0 0.0 0.0 20.0" Properties=species:S:1:pos:R:3:quaternions:R:4:c_diameter\[1\]:R:1:c_diameter\[2\]:R:1:c_diameter\[3\]:R:1:forces:R:3:torques:R:3 separation_distance=2.9920416284052647 energy=-0.28068697181120755 pbc="F F F"
X       10.00000000      10.00000000      10.00000000       1.00000000       0.00000000       0.00000000       0.00000000       1.00000000       1.50000000       2.00000000       1.02173445       0.00000000       0.00000000      -0.00000000      -0.00000000       0.00000000
X       12.99204163      10.00000000      10.00000000       0.70710678       0.00000000       0.00000000       0.70710678       1.00000000       1.50000000       2.00000000      -1.02173445      -0.00000000      -0.00000000      -0.00000000      -0.00000000      -0.00000000
2
Lattice="20.0 0.0 0.0 0.0 20.0 0.0 0.0 0.0 20.0" Properties=species:S:1:pos:R:3:quaternions:R:4:c_diameter\[1\]:R:1:c_diameter\[2\]:R:1:c_diameter\[3\]:R:1:forces:R:3:torques:R:3 separation_distance=3.0050505050505047 energy=-0.26770863335561523 pbc="F F F"
X       10.00000000      10.00000000      10.00000000       1.00000000       0.00000000       0.00000000       0.00000000       1.00000000       1.50000000       2.00000000       0.97385552       0.00000000       0.00000000      -0.00000000      -0.00000000       0.00000000
X       13.00505051      10.00000000      10.00000000       0.70710678       0.00000000       0.00000000       0.70710678       1.00000000       1.50000000       2.00000000      -0.97385552      -0.00000000      -0.00000000      -0.00000000      -0.00000000      -0.00000000
2
Lattice="20.0 0.0 0.0 0.0 20.0 0.0 0.0 0.0 20.0" Properties=species:S:1:pos:R:3:quaternions:R:4:c_diameter\[1\]:R:1:c_diameter\[2\]:R:1:c_diameter\[3\]:R:1:forces:R:3:torques:R:3 separation_distance=3.0180593816957453 energy=-0.2553418762451684 pbc="F F F"
X       10.00000000      10.00000000      10.00000000       1.00000000       0.00000000       0.00000000       0.00000000       1.00000000       1.50000000       2.00000000       0.92771959       0.00000000       0.00000000      -0.00000000      -0.00000000       0.00000000
X       13.01805938      10.00000000      10.00000000       0.70710678       0.00000000       0.00000000       0.70710678       1.00000000       1.50000000       2.00000000      -0.92771959      -0.00000000      -0.00000000      -0.00000000      -0.00000000      -0.00000000
2
Lattice="20.0 0.0 0.0 0.0 20.0 0.0 0.0 0.0 20.0" Properties=species:S:1:pos:R:3:quaternions:R:4:c_diameter\[1\]:R:1:c_diameter\[2\]:R:1:c_diameter\[3\]:R:1:forces:R:3:torques:R:3 separation_distance=3.0310682583409854 energy=-0.24356368757837218 pbc="F F F"
X       10.00000000      10.00000000      10.00000000       1.00000000       0.00000000       0.00000000       0.00000000       1.00000000       1.50000000       2.00000000       0.88337380       0.00000000       0.00000000      -0.00000000      -0.00000000       0.00000000
X       13.03106826      10.00000000      10.00000000       0.70710678       0.00000000       0.00000000       0.70710678       1.00000000       1.50000000       2.00000000      -0.88337380      -0.00000000      -0.00000000      -0.00000000      -0.00000000      -0.00000000
2
Lattice="20.0 0.0 0.0 0.0 20.0 0.0 0.0 0.0 20.0" Properties=species:S:1:pos:R:3:quaternions:R:4:c_diameter\[1\]:R:1:c_diameter\[2\]:R:1:c_diameter\[3\]:R:1:forces:R:3:torques:R:3 separation_distance=3.044077134986226 energy=-0.23235061915918215 pbc="F F F"
X       10.00000000      10.00000000      10.00000000       1.00000000       0.00000000       0.00000000       0.00000000       1.00000000       1.50000000       2.00000000       0.84083890       0.00000000       0.00000000      -0.00000000      -0.00000000       0.00000000
X       13.04407713      10.00000000      10.00000000       0.70710678       0.00000000       0.00000000       0.70710678       1.00000000       1.50000000       2.00000000      -0.84083890      -0.00000000      -0.00000000      -0.00000000      -0.00000000      -0.00000000
2
Lattice="20.0 0.0 0.0 0.0 20.0 0.0 0.0 0.0 20.0" Properties=species:S:1:pos:R:3:quaternions:R:4:c_diameter\[1\]:R:1:c_diameter\[2\]:R:1:c_diameter\[3\]:R:1:forces:R:3:torques:R:3 separation_distance=3.057086011631466 energy=-0.22167909453870696 pbc="F F F"
X       10.00000000      10.00000000      10.00000000       1.00000000       0.00000000       0.00000000       0.00000000       1.00000000       1.50000000       2.00000000       0.80011467       0.00000000       0.00000000      -0.00000000      -0.00000000       0.00000000
X       13.05708601      10.00000000      10.00000000       0.70710678       0.00000000       0.00000000       0.70710678       1.00000000       1.50000000       2.00000000      -0.80011467      -0.00000000      -0.00000000      -0.00000000      -0.00000000      -0.00000000
2
Lattice="20.0 0.0 0.0 0.0 20.0 0.0 0.0 0.0 20.0" Properties=species:S:1:pos:R:3:quaternions:R:4:c_diameter\[1\]:R:1:c_diameter\[2\]:R:1:c_diameter\[3\]:R:1:forces:R:3:torques:R:3 separation_distance=3.0700948882767065 energy=-0.21152565263274453 pbc="F F F"
X       10.00000000      10.00000000      10.00000000       1.00000000       0.00000000       0.00000000       0.00000000       1.00000000       1.50000000       2.00000000       0.76118427       0.00000000       0.00000000      -0.00000000      -0.00000000       0.00000000
X       13.07009489      10.00000000      10.00000000       0.70710678       0.00000000       0.00000000       0.70710678       1.00000000       1.50000000       2.00000000      -0.76118427      -0.00000000      -0.00000000      -0.00000000      -0.00000000       0.00000000
2
Lattice="20.0 0.0 0.0 0.0 20.0 0.0 0.0 0.0 20.0" Properties=species:S:1:pos:R:3:quaternions:R:4:c_diameter\[1\]:R:1:c_diameter\[2\]:R:1:c_diameter\[3\]:R:1:forces:R:3:torques:R:3 separation_distance=3.0831037649219466 energy=-0.20186713905069212 pbc="F F F"
X       10.00000000      10.00000000      10.00000000       1.00000000       0.00000000       0.00000000       0.00000000       1.00000000       1.50000000       2.00000000       0.72401793       0.00000000       0.00000000      -0.00000000      -0.00000000       0.00000000
X       13.08310376      10.00000000      10.00000000       0.70710678       0.00000000       0.00000000       0.70710678       1.00000000       1.50000000       2.00000000      -0.72401793      -0.00000000      -0.00000000      -0.00000000      -0.00000000      -0.00000000
2
Lattice="20.0 0.0 0.0 0.0 20.0 0.0 0.0 0.0 20.0" Properties=species:S:1:pos:R:3:quaternions:R:4:c_diameter\[1\]:R:1:c_diameter\[2\]:R:1:c_diameter\[3\]:R:1:forces:R:3:torques:R:3 separation_distance=3.0961126415671867 energy=-0.19268085438613217 pbc="F F F"
X       10.00000000      10.00000000      10.00000000       1.00000000       0.00000000       0.00000000       0.00000000       1.00000000       1.50000000       2.00000000       0.68857593       0.00000000       0.00000000      -0.00000000      -0.00000000       0.00000000
X       13.09611264      10.00000000      10.00000000       0.70710678       0.00000000       0.00000000       0.70710678       1.00000000       1.50000000       2.00000000      -0.68857593      -0.00000000      -0.00000000      -0.00000000      -0.00000000      -0.00000000
2
Lattice="20.0 0.0 0.0 0.0 20.0 0.0 0.0 0.0 20.0" Properties=species:S:1:pos:R:3:quaternions:R:4:c_diameter\[1\]:R:1:c_diameter\[2\]:R:1:c_diameter\[3\]:R:1:forces:R:3:torques:R:3 separation_distance=3.109121518212427 energy=-0.18394466715422067 pbc="F F F"
X       10.00000000      10.00000000      10.00000000       1.00000000       0.00000000       0.00000000       0.00000000       1.00000000       1.50000000       2.00000000       0.65481104       0.00000000       0.00000000      -0.00000000      -0.00000000       0.00000000
X       13.10912152      10.00000000      10.00000000       0.70710678       0.00000000       0.00000000       0.70710678       1.00000000       1.50000000       2.00000000      -0.65481104      -0.00000000      -0.00000000      -0.00000000      -0.00000000      -0.00000000
2
Lattice="20.0 0.0 0.0 0.0 20.0 0.0 0.0 0.0 20.0" Properties=species:S:1:pos:R:3:quaternions:R:4:c_diameter\[1\]:R:1:c_diameter\[2\]:R:1:c_diameter\[3\]:R:1:forces:R:3:torques:R:3 separation_distance=3.1221303948576673 energy=-0.17563709776048686 pbc="F F F"
X       10.00000000      10.00000000      10.00000000       1.00000000       0.00000000       0.00000000       0.00000000       1.00000000       1.50000000       2.00000000       0.62267057       0.00000000       0.00000000      -0.00000000      -0.00000000       0.00000000
X       13.12213039      10.00000000      10.00000000       0.70710678       0.00000000       0.00000000       0.70710678       1.00000000       1.50000000       2.00000000      -0.62267057      -0.00000000      -0.00000000      -0.00000000      -0.00000000      -0.00000000
2
Lattice="20.0 0.0 0.0 0.0 20.0 0.0 0.0 0.0 20.0" Properties=species:S:1:pos:R:3:quaternions:R:4:c_diameter\[1\]:R:1:c_diameter\[2\]:R:1:c_diameter\[3\]:R:1:forces:R:3:torques:R:3 separation_distance=3.135139271502908 energy=-0.16773737880433573 pbc="F F F"
X       10.00000000      10.00000000      10.00000000       1.00000000       0.00000000       0.00000000       0.00000000       1.00000000       1.50000000       2.00000000       0.59209797       0.00000000       0.00000000      -0.00000000      -0.00000000       0.00000000
X       13.13513927      10.00000000      10.00000000       0.70710678       0.00000000       0.00000000       0.70710678       1.00000000       1.50000000       2.00000000      -0.59209797      -0.00000000      -0.00000000      -0.00000000      -0.00000000      -0.00000000
2
Lattice="20.0 0.0 0.0 0.0 20.0 0.0 0.0 0.0 20.0" Properties=species:S:1:pos:R:3:quaternions:R:4:c_diameter\[1\]:R:1:c_diameter\[2\]:R:1:c_diameter\[3\]:R:1:forces:R:3:torques:R:3 separation_distance=3.148148148148148 energy=-0.16022549612089793 pbc="F F F"
X       10.00000000      10.00000000      10.00000000       1.00000000       0.00000000       0.00000000       0.00000000       1.00000000       1.50000000       2.00000000       0.56303417       0.00000000       0.00000000      -0.00000000      -0.00000000       0.00000000
X       13.14814815      10.00000000      10.00000000       0.70710678       0.00000000       0.00000000       0.70710678       1.00000000       1.50000000       2.00000000      -0.56303417      -0.00000000      -0.00000000      -0.00000000      -0.00000000      -0.00000000
2
Lattice="20.0 0.0 0.0 0.0 20.0 0.0 0.0 0.0 20.0" Properties=species:S:1:pos:R:3:quaternions:R:4:c_diameter\[1\]:R:1:c_diameter\[2\]:R:1:c_diameter\[3\]:R:1:forces:R:3:torques:R:3 separation_distance=3.161157024793388 energy=-0.15308221421595972 pbc="F F F"
X       10.00000000      10.00000000      10.00000000       1.00000000       0.00000000       0.00000000       0.00000000       1.00000000       1.50000000       2.00000000       0.53541869       0.00000000       0.00000000      -0.00000000      -0.00000000       0.00000000
X       13.16115702      10.00000000      10.00000000       0.70710678       0.00000000       0.00000000       0.70710678       1.00000000       1.50000000       2.00000000      -0.53541869      -0.00000000      -0.00000000      -0.00000000      -0.00000000      -0.00000000
2
Lattice="20.0 0.0 0.0 0.0 20.0 0.0 0.0 0.0 20.0" Properties=species:S:1:pos:R:3:quaternions:R:4:c_diameter\[1\]:R:1:c_diameter\[2\]:R:1:c_diameter\[3\]:R:1:forces:R:3:torques:R:3 separation_distance=3.1741659014386285 energy=-0.14628908912501046 pbc="F F F"
X       10.00000000      10.00000000      10.00000000       1.00000000       0.00000000       0.00000000       0.00000000       1.00000000       1.50000000       2.00000000       0.50919047       0.00000000       0.00000000      -0.00000000      -0.00000000       0.00000000
X       13.17416590      10.00000000      10.00000000       0.70710678       0.00000000       0.00000000       0.70710678       1.00000000       1.50000000       2.00000000      -0.50919047      -0.00000000      -0.00000000      -0.00000000      -0.00000000      -0.00000000
2
Lattice="20.0 0.0 0.0 0.0 20.0 0.0 0.0 0.0 20.0" Properties=species:S:1:pos:R:3:quaternions:R:4:c_diameter\[1\]:R:1:c_diameter\[2\]:R:1:c_diameter\[3\]:R:1:forces:R:3:torques:R:3 separation_distance=3.187174778083869 energy=-0.1398284712078228 pbc="F F F"
X       10.00000000      10.00000000      10.00000000       1.00000000       0.00000000       0.00000000       0.00000000       1.00000000       1.50000000       2.00000000       0.48428853       0.00000000       0.00000000      -0.00000000      -0.00000000       0.00000000
X       13.18717478      10.00000000      10.00000000       0.70710678       0.00000000       0.00000000       0.70710678       1.00000000       1.50000000       2.00000000      -0.48428853      -0.00000000      -0.00000000      -0.00000000      -0.00000000      -0.00000000
2
Lattice="20.0 0.0 0.0 0.0 20.0 0.0 0.0 0.0 20.0" Properties=species:S:1:pos:R:3:quaternions:R:4:c_diameter\[1\]:R:1:c_diameter\[2\]:R:1:c_diameter\[3\]:R:1:forces:R:3:torques:R:3 separation_distance=3.200183654729109 energy=-0.13368349995693868 pbc="F F F"
X       10.00000000      10.00000000      10.00000000       1.00000000       0.00000000       0.00000000       0.00000000       1.00000000       1.50000000       2.00000000       0.46065261       0.00000000       0.00000000      -0.00000000      -0.00000000       0.00000000
X       13.20018365      10.00000000      10.00000000       0.70710678       0.00000000       0.00000000       0.70710678       1.00000000       1.50000000       2.00000000      -0.46065261      -0.00000000      -0.00000000      -0.00000000      -0.00000000      -0.00000000
2
Lattice="20.0 0.0 0.0 0.0 20.0 0.0 0.0 0.0 20.0" Properties=species:S:1:pos:R:3:quaternions:R:4:c_diameter\[1\]:R:1:c_diameter\[2\]:R:1:c_diameter\[3\]:R:1:forces:R:3:torques:R:3 separation_distance=3.2131925313743492 energy=-0.12783809253751932 pbc="F F F"
X       10.00000000      10.00000000      10.00000000       1.00000000       0.00000000       0.00000000       0.00000000       1.00000000       1.50000000       2.00000000       0.43822348       0.00000000       0.00000000      -0.00000000      -0.00000000       0.00000000
X       13.21319253      10.00000000      10.00000000       0.70710678       0.00000000       0.00000000       0.70710678       1.00000000       1.50000000       2.00000000      -0.43822348      -0.00000000      -0.00000000      -0.00000000      -0.00000000      -0.00000000
2
Lattice="20.0 0.0 0.0 0.0 20.0 0.0 0.0 0.0 20.0" Properties=species:S:1:pos:R:3:quaternions:R:4:c_diameter\[1\]:R:1:c_diameter\[2\]:R:1:c_diameter\[3\]:R:1:forces:R:3:torques:R:3 separation_distance=3.2262014080195898 energy=-0.12227692747515409 pbc="F F F"
X       10.00000000      10.00000000      10.00000000       1.00000000       0.00000000       0.00000000       0.00000000       1.00000000       1.50000000       2.00000000       0.41694335       0.00000000       0.00000000      -0.00000000      -0.00000000       0.00000000
X       13.22620141      10.00000000      10.00000000       0.70710678       0.00000000       0.00000000       0.70710678       1.00000000       1.50000000       2.00000000      -0.41694335      -0.00000000      -0.00000000      -0.00000000      -0.00000000      -0.00000000
2
Lattice="20.0 0.0 0.0 0.0 20.0 0.0 0.0 0.0 20.0" Properties=species:S:1:pos:R:3:quaternions:R:4:c_diameter\[1\]:R:1:c_diameter\[2\]:R:1:c_diameter\[3\]:R:1:forces:R:3:torques:R:3 separation_distance=3.23921028466483 energy=-0.11698542465747502 pbc="F F F"
X       10.00000000      10.00000000      10.00000000       1.00000000       0.00000000       0.00000000       0.00000000       1.00000000       1.50000000       2.00000000       0.39675608       0.00000000       0.00000000      -0.00000000      -0.00000000       0.00000000
X       13.23921028      10.00000000      10.00000000       0.70710678       0.00000000       0.00000000       0.70710678       1.00000000       1.50000000       2.00000000      -0.39675608      -0.00000000      -0.00000000      -0.00000000      -0.00000000      -0.00000000
2
Lattice="20.0 0.0 0.0 0.0 20.0 0.0 0.0 0.0 20.0" Properties=species:S:1:pos:R:3:quaternions:R:4:c_diameter\[1\]:R:1:c_diameter\[2\]:R:1:c_diameter\[3\]:R:1:forces:R:3:torques:R:3 separation_distance=3.2522191613100704 energy=-0.11194972260645224 pbc="F F F"
X       10.00000000      10.00000000      10.00000000       1.00000000       0.00000000       0.00000000       0.00000000       1.00000000       1.50000000       2.00000000       0.37760735       0.00000000       0.00000000      -0.00000000      -0.00000000       0.00000000
X       13.25221916      10.00000000      10.00000000       0.70710678       0.00000000       0.00000000       0.70710678       1.00000000       1.50000000       2.00000000      -0.37760735      -0.00000000      -0.00000000      -0.00000000      -0.00000000      -0.00000000
2
Lattice="20.0 0.0 0.0 0.0 20.0 0.0 0.0 0.0 20.0" Properties=species:S:1:pos:R:3:quaternions:R:4:c_diameter\[1\]:R:1:c_diameter\[2\]:R:1:c_diameter\[3\]:R:1:forces:R:3:torques:R:3 separation_distance=3.2652280379553105 energy=-0.10715665380418334 pbc="F F F"
X       10.00000000      10.00000000      10.00000000       1.00000000       0.00000000       0.00000000       0.00000000       1.00000000       1.50000000       2.00000000       0.35944480       0.00000000       0.00000000      -0.00000000      -0.00000000       0.00000000
X       13.26522804      10.00000000      10.00000000       0.70710678       0.00000000       0.00000000       0.70710678       1.00000000       1.50000000       2.00000000      -0.35944480      -0.00000000      -0.00000000      -0.00000000      -0.00000000      -0.00000000
2
Lattice="20.0 0.0 0.0 0.0 20.0 0.0 0.0 0.0 20.0" Properties=species:S:1:pos:R:3:quaternions:R:4:c_diameter\[1\]:R:1:c_diameter\[2\]:R:1:c_diameter\[3\]:R:1:forces:R:3:torques:R:3 separation_distance=3.2782369146005506 energy=-0.10259371871003571 pbc="F F F"
X       10.00000000      10.00000000      10.00000000       1.00000000       0.00000000       0.00000000       0.00000000       1.00000000       1.50000000       2.00000000       0.34221810       0.00000000       0.00000000      -0.00000000      -0.00000000       0.00000000
X       13.27823691      10.00000000      10.00000000       0.70710678       0.00000000       0.00000000       0.70710678       1.00000000       1.50000000       2.00000000      -0.34221810      -0.00000000      -0.00000000      -0.00000000      -0.00000000      -0.00000000
2
Lattice="20.0 0.0 0.0 0.0 20.0 0.0 0.0 0.0 20.0" Properties=species:S:1:pos:R:3:quaternions:R:4:c_diameter\[1\]:R:1:c_diameter\[2\]:R:1:c_diameter\[3\]:R:1:forces:R:3:torques:R:3 separation_distance=3.291245791245791 energy=-0.09824905898641914 pbc="F F F"
X       10.00000000      10.00000000      10.00000000       1.00000000       0.00000000       0.00000000       0.00000000       1.00000000       1.50000000       2.00000000       0.32587902       0.00000000       0.00000000      -0.00000000      -0.00000000       0.00000000
X       13.29124579      10.00000000      10.00000000       0.70710678       0.00000000       0.00000000       0.70710678       1.00000000       1.50000000       2.00000000      -0.32587902      -0.00000000      -0.00000000      -0.00000000      -0.00000000      -0.00000000
2
Lattice="20.0 0.0 0.0 0.0 20.0 0.0 0.0 0.0 20.0" Properties=species:S:1:pos:R:3:quaternions:R:4:c_diameter\[1\]:R:1:c_diameter\[2\]:R:1:c_diameter\[3\]:R:1:forces:R:3:torques:R:3 separation_distance=3.304254667891031 energy=-0.09411143035019957 pbc="F F F"
X       10.00000000      10.00000000      10.00000000       1.00000000       0.00000000       0.00000000       0.00000000       1.00000000       1.50000000       2.00000000       0.31038138       0.00000000       0.00000000      -0.00000000      -0.00000000       0.00000000
X       13.30425467      10.00000000      10.00000000       0.70710678       0.00000000       0.00000000       0.70710678       1.00000000       1.50000000       2.00000000      -0.31038138      -0.00000000      -0.00000000      -0.00000000      -0.00000000      -0.00000000
2
Lattice="20.0 0.0 0.0 0.0 20.0 0.0 0.0 0.0 20.0" Properties=species:S:1:pos:R:3:quaternions:R:4:c_diameter\[1\]:R:1:c_diameter\[2\]:R:1:c_diameter\[3\]:R:1:forces:R:3:torques:R:3 separation_distance=3.3172635445362717 energy=-0.09017017538351964 pbc="F F F"
X       10.00000000      10.00000000      10.00000000       1.00000000       0.00000000       0.00000000       0.00000000       1.00000000       1.50000000       2.00000000       0.29568113       0.00000000       0.00000000      -0.00000000      -0.00000000       0.00000000
X       13.31726354      10.00000000      10.00000000       0.70710678       0.00000000       0.00000000       0.70710678       1.00000000       1.50000000       2.00000000      -0.29568113      -0.00000000      -0.00000000      -0.00000000      -0.00000000      -0.00000000
2
Lattice="20.0 0.0 0.0 0.0 20.0 0.0 0.0 0.0 20.0" Properties=species:S:1:pos:R:3:quaternions:R:4:c_diameter\[1\]:R:1:c_diameter\[2\]:R:1:c_diameter\[3\]:R:1:forces:R:3:torques:R:3 separation_distance=3.330272421181512 energy=-0.08641519656875704 pbc="F F F"
X       10.00000000      10.00000000      10.00000000       1.00000000       0.00000000       0.00000000       0.00000000       1.00000000       1.50000000       2.00000000       0.28173624       0.00000000       0.00000000      -0.00000000      -0.00000000       0.00000000
X       13.33027242      10.00000000      10.00000000       0.70710678       0.00000000       0.00000000       0.70710678       1.00000000       1.50000000       2.00000000      -0.28173624      -0.00000000      -0.00000000      -0.00000000      -0.00000000      -0.00000000
2
Lattice="20.0 0.0 0.0 0.0 20.0 0.0 0.0 0.0 20.0" Properties=species:S:1:pos:R:3:quaternions:R:4:c_diameter\[1\]:R:1:c_diameter\[2\]:R:1:c_diameter\[3\]:R:1:forces:R:3:torques:R:3 separation_distance=3.343281297826752 energy=-0.08283692975519519 pbc="F F F"
X       10.00000000      10.00000000      10.00000000       1.00000000       0.00000000       0.00000000       0.00000000       1.00000000       1.50000000       2.00000000       0.26850671       0.00000000       0.00000000      -0.00000000      -0.00000000       0.00000000
X       13.34328130      10.00000000      10.00000000       0.70710678       0.00000000       0.00000000       0.70710678       1.00000000       1.50000000       2.00000000      -0.26850671      -0.00000000      -0.00000000      -0.00000000      -0.00000000      -0.00000000
2
Lattice="20.0 0.0 0.0 0.0 20.0 0.0 0.0 0.0 20.0" Properties=species:S:1:pos:R:3:quaternions:R:4:c_diameter\[1\]:R:1:c_diameter\[2\]:R:1:c_diameter\[3\]:R:1:forces:R:3:torques:R:3 separation_distance=3.3562901744719924 energy=-0.07942631821776629 pbc="F F F"
X       10.00000000      10.00000000      10.00000000       1.00000000       0.00000000       0.00000000       0.00000000       1.00000000       1.50000000       2.00000000       0.25595454       0.00000000       0.00000000      -0.00000000      -0.00000000       0.00000000
X       13.35629017      10.00000000      10.00000000       0.70710678       0.00000000       0.00000000       0.70710678       1.00000000       1.50000000       2.00000000      -0.25595454      -0.00000000      -0.00000000      -0.00000000      -0.00000000      -0.00000000
2
Lattice="20.0 0.0 0.0 0.0 20.0 0.0 0.0 0.0 20.0" Properties=species:S:1:pos:R:3:quaternions:R:4:c_diameter\[1\]:R:1:c_diameter\[2\]:R:1:c_diameter\[3\]:R:1:forces:R:3:torques:R:3 separation_distance=3.369299051117233 energy=-0.07617478742930843 pbc="F F F"
X       10.00000000      10.00000000      10.00000000       1.00000000       0.00000000       0.00000000       0.00000000       1.00000000       1.50000000       2.00000000       0.24404359       0.00000000       0.00000000      -0.00000000      -0.00000000       0.00000000
X       13.36929905      10.00000000      10.00000000       0.70710678       0.00000000       0.00000000       0.70710678       1.00000000       1.50000000       2.00000000      -0.24404359      -0.00000000      -0.00000000      -0.00000000      -0.00000000      -0.00000000
2
Lattice="20.0 0.0 0.0 0.0 20.0 0.0 0.0 0.0 20.0" Properties=species:S:1:pos:R:3:quaternions:R:4:c_diameter\[1\]:R:1:c_diameter\[2\]:R:1:c_diameter\[3\]:R:1:forces:R:3:torques:R:3 separation_distance=3.382307927762473 energy=-0.0730742206357967 pbc="F F F"
X       10.00000000      10.00000000      10.00000000       1.00000000       0.00000000       0.00000000       0.00000000       1.00000000       1.50000000       2.00000000       0.23273959       0.00000000       0.00000000      -0.00000000      -0.00000000       0.00000000
X       13.38230793      10.00000000      10.00000000       0.70710678       0.00000000       0.00000000       0.70710678       1.00000000       1.50000000       2.00000000      -0.23273959      -0.00000000      -0.00000000      -0.00000000      -0.00000000      -0.00000000
2
Lattice="20.0 0.0 0.0 0.0 20.0 0.0 0.0 0.0 20.0" Properties=species:S:1:pos:R:3:quaternions:R:4:c_diameter\[1\]:R:1:c_diameter\[2\]:R:1:c_diameter\[3\]:R:1:forces:R:3:torques:R:3 separation_distance=3.395316804407713 energy=-0.07011693529782212 pbc="F F F"
X       10.00000000      10.00000000      10.00000000       1.00000000       0.00000000       0.00000000       0.00000000       1.00000000       1.50000000       2.00000000       0.22201006       0.00000000       0.00000000      -0.00000000      -0.00000000       0.00000000
X       13.39531680      10.00000000      10.00000000       0.70710678       0.00000000       0.00000000       0.70710678       1.00000000       1.50000000       2.00000000      -0.22201006      -0.00000000      -0.00000000      -0.00000000      -0.00000000      -0.00000000
2
Lattice="20.0 0.0 0.0 0.0 20.0 0.0 0.0 0.0 20.0" Properties=species:S:1:pos:R:3:quaternions:R:4:c_diameter\[1\]:R:1:c_diameter\[2\]:R:1:c_diameter\[3\]:R:1:forces:R:3:torques:R:3 separation_distance=3.4083256810529536 energy=-0.06729566044023398 pbc="F F F"
X       10.00000000      10.00000000      10.00000000       1.00000000       0.00000000       0.00000000       0.00000000       1.00000000       1.50000000       2.00000000       0.21182419       0.00000000       0.00000000      -0.00000000      -0.00000000       0.00000000
X       13.40832568      10.00000000      10.00000000       0.70710678       0.00000000       0.00000000       0.70710678       1.00000000       1.50000000       2.00000000      -0.21182419      -0.00000000      -0.00000000      -0.00000000      -0.00000000      -0.00000000
2
Lattice="20.0 0.0 0.0 0.0 20.0 0.0 0.0 0.0 20.0" Properties=species:S:1:pos:R:3:quaternions:R:4:c_diameter\[1\]:R:1:c_diameter\[2\]:R:1:c_diameter\[3\]:R:1:forces:R:3:torques:R:3 separation_distance=3.4213345576981937 energy=-0.06460351493453693 pbc="F F F"
X       10.00000000      10.00000000      10.00000000       1.00000000       0.00000000       0.00000000       0.00000000       1.00000000       1.50000000       2.00000000       0.20215283       0.00000000       0.00000000      -0.00000000      -0.00000000       0.00000000
X       13.42133456      10.00000000      10.00000000       0.70710678       0.00000000       0.00000000       0.70710678       1.00000000       1.50000000       2.00000000      -0.20215283      -0.00000000      -0.00000000      -0.00000000      -0.00000000      -0.00000000
2
Lattice="20.0 0.0 0.0 0.0 20.0 0.0 0.0 0.0 20.0" Properties=species:S:1:pos:R:3:quaternions:R:4:c_diameter\[1\]:R:1:c_diameter\[2\]:R:1:c_diameter\[3\]:R:1:forces:R:3:torques:R:3 separation_distance=3.4343434343434343 energy=-0.06203398672466205 pbc="F F F"
X       10.00000000      10.00000000      10.00000000       1.00000000       0.00000000       0.00000000       0.00000000       1.00000000       1.50000000       2.00000000       0.19296839       0.00000000       0.00000000      -0.00000000      -0.00000000       0.00000000
X       13.43434343      10.00000000      10.00000000       0.70710678       0.00000000       0.00000000       0.70710678       1.00000000       1.50000000       2.00000000      -0.19296839      -0.00000000      -0.00000000      -0.00000000      -0.00000000      -0.00000000
2
Lattice="20.0 0.0 0.0 0.0 20.0 0.0 0.0 0.0 20.0" Properties=species:S:1:pos:R:3:quaternions:R:4:c_diameter\[1\]:R:1:c_diameter\[2\]:R:1:c_diameter\[3\]:R:1:forces:R:3:torques:R:3 separation_distance=3.4473523109886743 energy=-0.05958091299556015 pbc="F F F"
X       10.00000000      10.00000000      10.00000000       1.00000000       0.00000000       0.00000000       0.00000000       1.00000000       1.50000000       2.00000000       0.18424475       0.00000000       0.00000000      -0.00000000      -0.00000000       0.00000000
X       13.44735231      10.00000000      10.00000000       0.70710678       0.00000000       0.00000000       0.70710678       1.00000000       1.50000000       2.00000000      -0.18424475      -0.00000000      -0.00000000      -0.00000000      -0.00000000      -0.00000000
2
Lattice="20.0 0.0 0.0 0.0 20.0 0.0 0.0 0.0 20.0" Properties=species:S:1:pos:R:3:quaternions:R:4:c_diameter\[1\]:R:1:c_diameter\[2\]:R:1:c_diameter\[3\]:R:1:forces:R:3:torques:R:3 separation_distance=3.4603611876339144 energy=-0.0572384612751996 pbc="F F F"
X       10.00000000      10.00000000      10.00000000       1.00000000       0.00000000       0.00000000       0.00000000       1.00000000       1.50000000       2.00000000       0.17595723       0.00000000       0.00000000      -0.00000000      -0.00000000       0.00000000
X       13.46036119      10.00000000      10.00000000       0.70710678       0.00000000       0.00000000       0.70710678       1.00000000       1.50000000       2.00000000      -0.17595723      -0.00000000      -0.00000000      -0.00000000      -0.00000000      -0.00000000
2
Lattice="20.0 0.0 0.0 0.0 20.0 0.0 0.0 0.0 20.0" Properties=species:S:1:pos:R:3:quaternions:R:4:c_diameter\[1\]:R:1:c_diameter\[2\]:R:1:c_diameter\[3\]:R:1:forces:R:3:torques:R:3 separation_distance=3.473370064279155 energy=-0.0550011114536244 pbc="F F F"
X       10.00000000      10.00000000      10.00000000       1.00000000       0.00000000       0.00000000       0.00000000       1.00000000       1.50000000       2.00000000       0.16808248       0.00000000       0.00000000      -0.00000000      -0.00000000       0.00000000
X       13.47337006      10.00000000      10.00000000       0.70710678       0.00000000       0.00000000       0.70710678       1.00000000       1.50000000       2.00000000      -0.16808248      -0.00000000      -0.00000000      -0.00000000      -0.00000000      -0.00000000
2
Lattice="20.0 0.0 0.0 0.0 20.0 0.0 0.0 0.0 20.0" Properties=species:S:1:pos:R:3:quaternions:R:4:c_diameter\[1\]:R:1:c_diameter\[2\]:R:1:c_diameter\[3\]:R:1:forces:R:3:torques:R:3 separation_distance=3.486378940924395 energy=-0.052863638697379436 pbc="F F F"
X       10.00000000      10.00000000      10.00000000       1.00000000       0.00000000       0.00000000       0.00000000       1.00000000       1.50000000       2.00000000       0.16059844       0.00000000       0.00000000      -0.00000000      -0.00000000       0.00000000
X       13.48637894      10.00000000      10.00000000       0.70710678       0.00000000       0.00000000       0.70710678       1.00000000       1.50000000       2.00000000      -0.16059844      -0.00000000      -0.00000000      -0.00000000      -0.00000000      -0.00000000
2
Lattice="20.0 0.0 0.0 0.0 20.0 0.0 0.0 0.0 20.0" Properties=species:S:1:pos:R:3:quaternions:R:4:c_diameter\[1\]:R:1:c_diameter\[2\]:R:1:c_diameter\[3\]:R:1:forces:R:3:torques:R:3 separation_distance=3.4993878175696356 energy=-0.05082109723357779 pbc="F F F"
X       10.00000000      10.00000000      10.00000000       1.00000000       0.00000000       0.00000000       0.00000000       1.00000000       1.50000000       2.00000000       0.15348426       0.00000000       0.00000000      -0.00000000      -0.00000000       0.00000000
X       13.49938782      10.00000000      10.00000000       0.70710678       0.00000000       0.00000000       0.70710678       1.00000000       1.50000000       2.00000000      -0.15348426      -0.00000000      -0.00000000      -0.00000000      -0.00000000      -0.00000000
2
Lattice="20.0 0.0 0.0 0.0 20.0 0.0 0.0 0.0 20.0" Properties=species:S:1:pos:R:3:quaternions:R:4:c_diameter\[1\]:R:1:c_diameter\[2\]:R:1:c_diameter\[3\]:R:1:forces:R:3:torques:R:3 separation_distance=3.5123966942148757 energy=-0.048868804974938215 pbc="F F F"
X       10.00000000      10.00000000      10.00000000       1.00000000       0.00000000       0.00000000       0.00000000       1.00000000       1.50000000       2.00000000       0.14672023       0.00000000       0.00000000      -0.00000000      -0.00000000       0.00000000
X       13.51239669      10.00000000      10.00000000       0.70710678       0.00000000       0.00000000       0.70710678       1.00000000       1.50000000       2.00000000      -0.14672023      -0.00000000      -0.00000000      -0.00000000      -0.00000000      -0.00000000
2
Lattice="20.0 0.0 0.0 0.0 20.0 0.0 0.0 0.0 20.0" Properties=species:S:1:pos:R:3:quaternions:R:4:c_diameter\[1\]:R:1:c_diameter\[2\]:R:1:c_diameter\[3\]:R:1:forces:R:3:torques:R:3 separation_distance=3.525405570860116 energy=-0.04700232895504536 pbc="F F F"
X       10.00000000      10.00000000      10.00000000       1.00000000       0.00000000       0.00000000       0.00000000       1.00000000       1.50000000       2.00000000       0.14028775       0.00000000       0.00000000      -0.00000000      -0.00000000       0.00000000
X       13.52540557      10.00000000      10.00000000       0.70710678       0.00000000       0.00000000       0.70710678       1.00000000       1.50000000       2.00000000      -0.14028775      -0.00000000      -0.00000000      -0.00000000      -0.00000000      -0.00000000
2
Lattice="20.0 0.0 0.0 0.0 20.0 0.0 0.0 0.0 20.0" Properties=species:S:1:pos:R:3:quaternions:R:4:c_diameter\[1\]:R:1:c_diameter\[2\]:R:1:c_diameter\[3\]:R:1:forces:R:3:torques:R:3 separation_distance=3.5384144475053563 energy=-0.04521747154174837 pbc="F F F"
X       10.00000000      10.00000000      10.00000000       1.00000000       0.00000000       0.00000000       0.00000000       1.00000000       1.50000000       2.00000000       0.13416924       0.00000000       0.00000000      -0.00000000      -0.00000000       0.00000000
X       13.53841445      10.00000000      10.00000000       0.70710678       0.00000000       0.00000000       0.70710678       1.00000000       1.50000000       2.00000000      -0.13416924      -0.00000000      -0.00000000      -0.00000000      -0.00000000      -0.00000000
2
Lattice="20.0 0.0 0.0 0.0 20.0 0.0 0.0 0.0 20.0" Properties=species:S:1:pos:R:3:quaternions:R:4:c_diameter\[1\]:R:1:c_diameter\[2\]:R:1:c_diameter\[3\]:R:1:forces:R:3:torques:R:3 separation_distance=3.551423324150597 energy=-0.04351025739584469 pbc="F F F"
X       10.00000000      10.00000000      10.00000000       1.00000000       0.00000000       0.00000000       0.00000000       1.00000000       1.50000000       2.00000000       0.12834810       0.00000000       0.00000000      -0.00000000      -0.00000000       0.00000000
X       13.55142332      10.00000000      10.00000000       0.70710678       0.00000000       0.00000000       0.70710678       1.00000000       1.50000000       2.00000000      -0.12834810      -0.00000000      -0.00000000      -0.00000000      -0.00000000      -0.00000000
2
Lattice="20.0 0.0 0.0 0.0 20.0 0.0 0.0 0.0 20.0" Properties=species:S:1:pos:R:3:quaternions:R:4:c_diameter\[1\]:R:1:c_diameter\[2\]:R:1:c_diameter\[3\]:R:1:forces:R:3:torques:R:3 separation_distance=3.564432200795837 energy=-0.041876921141915394 pbc="F F F"
X       10.00000000      10.00000000      10.00000000       1.00000000       0.00000000       0.00000000       0.00000000       1.00000000       1.50000000       2.00000000       0.12280863       0.00000000       0.00000000      -0.00000000      -0.00000000       0.00000000
X       13.56443220      10.00000000      10.00000000       0.70710678       0.00000000       0.00000000       0.70710678       1.00000000       1.50000000       2.00000000      -0.12280863      -0.00000000      -0.00000000      -0.00000000      -0.00000000      -0.00000000
2
Lattice="20.0 0.0 0.0 0.0 20.0 0.0 0.0 0.0 20.0" Properties=species:S:1:pos:R:3:quaternions:R:4:c_diameter\[1\]:R:1:c_diameter\[2\]:R:1:c_diameter\[3\]:R:1:forces:R:3:torques:R:3 separation_distance=3.577441077441077 energy=-0.04031389571826044 pbc="F F F"
X       10.00000000      10.00000000      10.00000000       1.00000000       0.00000000       0.00000000       0.00000000       1.00000000       1.50000000       2.00000000       0.11753603       0.00000000       0.00000000      -0.00000000      -0.00000000       0.00000000
X       13.57744108      10.00000000      10.00000000       0.70710678       0.00000000       0.00000000       0.70710678       1.00000000       1.50000000       2.00000000      -0.11753603      -0.00000000      -0.00000000      -0.00000000      -0.00000000      -0.00000000
2
Lattice="20.0 0.0 0.0 0.0 20.0 0.0 0.0 0.0 20.0" Properties=species:S:1:pos:R:3:quaternions:R:4:c_diameter\[1\]:R:1:c_diameter\[2\]:R:1:c_diameter\[3\]:R:1:forces:R:3:torques:R:3 separation_distance=3.5904499540863175 energy=-0.03881780137327546 pbc="F F F"
X       10.00000000      10.00000000      10.00000000       1.00000000       0.00000000       0.00000000       0.00000000       1.00000000       1.50000000       2.00000000       0.11251630       0.00000000       0.00000000      -0.00000000      -0.00000000       0.00000000
X       13.59044995      10.00000000      10.00000000       0.70710678       0.00000000       0.00000000       0.70710678       1.00000000       1.50000000       2.00000000      -0.11251630      -0.00000000      -0.00000000      -0.00000000      -0.00000000      -0.00000000
2
Lattice="20.0 0.0 0.0 0.0 20.0 0.0 0.0 0.0 20.0" Properties=species:S:1:pos:R:3:quaternions:R:4:c_diameter\[1\]:R:1:c_diameter\[2\]:R:1:c_diameter\[3\]:R:1:forces:R:3:torques:R:3 separation_distance=3.603458830731558 energy=-0.03738543527623018 pbc="F F F"
X       10.00000000      10.00000000      10.00000000       1.00000000       0.00000000       0.00000000       0.00000000       1.00000000       1.50000000       2.00000000       0.10773623       0.00000000       0.00000000      -0.00000000      -0.00000000       0.00000000
X       13.60345883      10.00000000      10.00000000       0.70710678       0.00000000       0.00000000       0.70710678       1.00000000       1.50000000       2.00000000      -0.10773623      -0.00000000      -0.00000000      -0.00000000      -0.00000000       0.00000000
2
Lattice="20.0 0.0 0.0 0.0 20.0 0.0 0.0 0.0 20.0" Properties=species:S:1:pos:R:3:quaternions:R:4:c_diameter\[1\]:R:1:c_diameter\[2\]:R:1:c_diameter\[3\]:R:1:forces:R:3:torques:R:3 separation_distance=3.616467707376798 energy=-0.03601376171120875 pbc="F F F"
X       10.00000000      10.00000000      10.00000000       1.00000000       0.00000000       0.00000000       0.00000000       1.00000000       1.50000000       2.00000000       0.10318334       0.00000000       0.00000000      -0.00000000      -0.00000000       0.00000000
X       13.61646771      10.00000000      10.00000000       0.70710678       0.00000000       0.00000000       0.70710678       1.00000000       1.50000000       2.00000000      -0.10318334      -0.00000000      -0.00000000      -0.00000000      -0.00000000      -0.00000000
2
Lattice="20.0 0.0 0.0 0.0 20.0 0.0 0.0 0.0 20.0" Properties=species:S:1:pos:R:3:quaternions:R:4:c_diameter\[1\]:R:1:c_diameter\[2\]:R:1:c_diameter\[3\]:R:1:forces:R:3:torques:R:3 separation_distance=3.629476584022038 energy=-0.03469990282390922 pbc="F F F"
X       10.00000000      10.00000000      10.00000000       1.00000000       0.00000000       0.00000000       0.00000000       1.00000000       1.50000000       2.00000000       0.09884582       0.00000000       0.00000000      -0.00000000      -0.00000000       0.00000000
X       13.62947658      10.00000000      10.00000000       0.70710678       0.00000000       0.00000000       0.70710678       1.00000000       1.50000000       2.00000000      -0.09884582      -0.00000000      -0.00000000      -0.00000000      -0.00000000      -0.00000000
2
Lattice="20.0 0.0 0.0 0.0 20.0 0.0 0.0 0.0 20.0" Properties=species:S:1:pos:R:3:quaternions:R:4:c_diameter\[1\]:R:1:c_diameter\[2\]:R:1:c_diameter\[3\]:R:1:forces:R:3:torques:R:3 separation_distance=3.6424854606672783 energy=-0.03344112989203135 pbc="F F F"
X       10.00000000      10.00000000      10.00000000       1.00000000       0.00000000       0.00000000       0.00000000       1.00000000       1.50000000       2.00000000       0.09471255       0.00000000       0.00000000      -0.00000000      -0.00000000       0.00000000
X       13.64248546      10.00000000      10.00000000       0.70710678       0.00000000       0.00000000       0.70710678       1.00000000       1.50000000       2.00000000      -0.09471255      -0.00000000      -0.00000000      -0.00000000      -0.00000000      -0.00000000
2
Lattice="20.0 0.0 0.0 0.0 20.0 0.0 0.0 0.0 20.0" Properties=species:S:1:pos:R:3:quaternions:R:4:c_diameter\[1\]:R:1:c_diameter\[2\]:R:1:c_diameter\[3\]:R:1:forces:R:3:torques:R:3 separation_distance=3.655494337312519 energy=-0.0322348550910827 pbc="F F F"
X       10.00000000      10.00000000      10.00000000       1.00000000       0.00000000       0.00000000       0.00000000       1.00000000       1.50000000       2.00000000       0.09077299       0.00000000       0.00000000      -0.00000000      -0.00000000       0.00000000
X       13.65549434      10.00000000      10.00000000       0.70710678       0.00000000       0.00000000       0.70710678       1.00000000       1.50000000       2.00000000      -0.09077299      -0.00000000      -0.00000000      -0.00000000      -0.00000000      -0.00000000
2
Lattice="20.0 0.0 0.0 0.0 20.0 0.0 0.0 0.0 20.0" Properties=species:S:1:pos:R:3:quaternions:R:4:c_diameter\[1\]:R:1:c_diameter\[2\]:R:1:c_diameter\[3\]:R:1:forces:R:3:torques:R:3 separation_distance=3.6685032139577594 energy=-0.031078623728577826 pbc="F F F"
X       10.00000000      10.00000000      10.00000000       1.00000000       0.00000000       0.00000000       0.00000000       1.00000000       1.50000000       2.00000000       0.08701720       0.00000000       0.00000000      -0.00000000      -0.00000000       0.00000000
X       13.66850321      10.00000000      10.00000000       0.70710678       0.00000000       0.00000000       0.70710678       1.00000000       1.50000000       2.00000000      -0.08701720      -0.00000000      -0.00000000      -0.00000000      -0.00000000      -0.00000000
2
Lattice="20.0 0.0 0.0 0.0 20.0 0.0 0.0 0.0 20.0" Properties=species:S:1:pos:R:3:quaternions:R:4:c_diameter\[1\]:R:1:c_diameter\[2\]:R:1:c_diameter\[3\]:R:1:forces:R:3:torques:R:3 separation_distance=3.6815120906029994 energy=-0.029970106920772316 pbc="F F F"
X       10.00000000      10.00000000      10.00000000       1.00000000       0.00000000       0.00000000       0.00000000       1.00000000       1.50000000       2.00000000       0.08343578       0.00000000       0.00000000      -0.00000000      -0.00000000       0.00000000
X       13.68151209      10.00000000      10.00000000       0.70710678       0.00000000       0.00000000       0.70710678       1.00000000       1.50000000       2.00000000      -0.08343578      -0.00000000      -0.00000000      -0.00000000      -0.00000000      -0.00000000
2
Lattice="20.0 0.0 0.0 0.0 20.0 0.0 0.0 0.0 20.0" Properties=species:S:1:pos:R:3:quaternions:R:4:c_diameter\[1\]:R:1:c_diameter\[2\]:R:1:c_diameter\[3\]:R:1:forces:R:3:torques:R:3 separation_distance=3.6945209672482395 energy=-0.02890709468724769 pbc="F F F"
X       10.00000000      10.00000000      10.00000000       1.00000000       0.00000000       0.00000000       0.00000000       1.00000000       1.50000000       2.00000000       0.08001984       0.00000000       0.00000000      -0.00000000      -0.00000000       0.00000000
X       13.69452097      10.00000000      10.00000000       0.70710678       0.00000000       0.00000000       0.70710678       1.00000000       1.50000000       2.00000000      -0.08001984      -0.00000000      -0.00000000      -0.00000000      -0.00000000      -0.00000000
2
Lattice="20.0 0.0 0.0 0.0 20.0 0.0 0.0 0.0 20.0" Properties=species:S:1:pos:R:3:quaternions:R:4:c_diameter\[1\]:R:1:c_diameter\[2\]:R:1:c_diameter\[3\]:R:1:forces:R:3:torques:R:3 separation_distance=3.7075298438934796 energy=-0.02788748943983382 pbc="F F F"
X       10.00000000      10.00000000      10.00000000       1.00000000       0.00000000       0.00000000       0.00000000       1.00000000       1.50000000       2.00000000       0.07676098       0.00000000       0.00000000      -0.00000000      -0.00000000       0.00000000
X       13.70752984      10.00000000      10.00000000       0.70710678       0.00000000       0.00000000       0.70710678       1.00000000       1.50000000       2.00000000      -0.07676098      -0.00000000      -0.00000000      -0.00000000      -0.00000000      -0.00000000
2
Lattice="20.0 0.0 0.0 0.0 20.0 0.0 0.0 0.0 20.0" Properties=species:S:1:pos:R:3:quaternions:R:4:c_diameter\[1\]:R:1:c_diameter\[2\]:R:1:c_diameter\[3\]:R:1:forces:R:3:torques:R:3 separation_distance=3.72053872053872 energy=-0.026909299843506238 pbc="F F F"
X       10.00000000      10.00000000      10.00000000       1.00000000       0.00000000       0.00000000       0.00000000       1.00000000       1.50000000       2.00000000       0.07365126       0.00000000       0.00000000      -0.00000000      -0.00000000       0.00000000
X       13.72053872      10.00000000      10.00000000       0.70710678       0.00000000       0.00000000       0.70710678       1.00000000       1.50000000       2.00000000      -0.07365126      -0.00000000      -0.00000000      -0.00000000      -0.00000000      -0.00000000
2
Lattice="20.0 0.0 0.0 0.0 20.0 0.0 0.0 0.0 20.0" Properties=species:S:1:pos:R:3:quaternions:R:4:c_diameter\[1\]:R:1:c_diameter\[2\]:R:1:c_diameter\[3\]:R:1:forces:R:3:torques:R:3 separation_distance=3.7335475971839607 energy=-0.025970635028027954 pbc="F F F"
X       10.00000000      10.00000000      10.00000000       1.00000000       0.00000000       0.00000000       0.00000000       1.00000000       1.50000000       2.00000000       0.07068317       0.00000000       0.00000000      -0.00000000      -0.00000000       0.00000000
X       13.73354760      10.00000000      10.00000000       0.70710678       0.00000000       0.00000000       0.70710678       1.00000000       1.50000000       2.00000000      -0.07068317      -0.00000000      -0.00000000      -0.00000000      -0.00000000      -0.00000000
2
Lattice="20.0 0.0 0.0 0.0 20.0 0.0 0.0 0.0 20.0" Properties=species:S:1:pos:R:3:quaternions:R:4:c_diameter\[1\]:R:1:c_diameter\[2\]:R:1:c_diameter\[3\]:R:1:forces:R:3:torques:R:3 separation_distance=3.7465564738292008 energy=-0.025069699130203273 pbc="F F F"
X       10.00000000      10.00000000      10.00000000       1.00000000       0.00000000       0.00000000       0.00000000       1.00000000       1.50000000       2.00000000       0.06784962       0.00000000       0.00000000      -0.00000000      -0.00000000       0.00000000
X       13.74655647      10.00000000      10.00000000       0.70710678       0.00000000       0.00000000       0.70710678       1.00000000       1.50000000       2.00000000      -0.06784962      -0.00000000      -0.00000000      -0.00000000      -0.00000000      -0.00000000
2
Lattice="20.0 0.0 0.0 0.0 20.0 0.0 0.0 0.0 20.0" Properties=species:S:1:pos:R:3:quaternions:R:4:c_diameter\[1\]:R:1:c_diameter\[2\]:R:1:c_diameter\[3\]:R:1:forces:R:3:torques:R:3 separation_distance=3.759565350474441 energy=-0.024204786147677838 pbc="F F F"
X       10.00000000      10.00000000      10.00000000       1.00000000       0.00000000       0.00000000       0.00000000       1.00000000       1.50000000       2.00000000       0.06514388       0.00000000       0.00000000      -0.00000000      -0.00000000       0.00000000
X       13.75956535      10.00000000      10.00000000       0.70710678       0.00000000       0.00000000       0.70710678       1.00000000       1.50000000       2.00000000      -0.06514388      -0.00000000      -0.00000000      -0.00000000      -0.00000000      -0.00000000
2
Lattice="20.0 0.0 0.0 0.0 20.0 0.0 0.0 0.0 20.0" Properties=species:S:1:pos:R:3:quaternions:R:4:c_diameter\[1\]:R:1:c_diameter\[2\]:R:1:c_diameter\[3\]:R:1:forces:R:3:torques:R:3 separation_distance=3.7725742271196814 energy=-0.023374275086247384 pbc="F F F"
X       10.00000000      10.00000000      10.00000000       1.00000000       0.00000000       0.00000000       0.00000000       1.00000000       1.50000000       2.00000000       0.06255960       0.00000000       0.00000000      -0.00000000      -0.00000000       0.00000000
X       13.77257423      10.00000000      10.00000000       0.70710678       0.00000000       0.00000000       0.70710678       1.00000000       1.50000000       2.00000000      -0.06255960      -0.00000000      -0.00000000      -0.00000000      -0.00000000       0.00000000
2
Lattice="20.0 0.0 0.0 0.0 20.0 0.0 0.0 0.0 20.0" Properties=species:S:1:pos:R:3:quaternions:R:4:c_diameter\[1\]:R:1:c_diameter\[2\]:R:1:c_diameter\[3\]:R:1:forces:R:3:torques:R:3 separation_distance=3.785583103764922 energy=-0.02257662538362529 pbc="F F F"
X       10.00000000      10.00000000      10.00000000       1.00000000       0.00000000       0.00000000       0.00000000       1.00000000       1.50000000       2.00000000       0.06009076       0.00000000       0.00000000      -0.00000000      -0.00000000       0.00000000
X       13.78558310      10.00000000      10.00000000       0.70710678       0.00000000       0.00000000       0.70710678       1.00000000       1.50000000       2.00000000      -0.06009076      -0.00000000      -0.00000000      -0.00000000      -0.00000000      -0.00000000
2
Lattice="20.0 0.0 0.0 0.0 20.0 0.0 0.0 0.0 20.0" Properties=species:S:1:pos:R:3:quaternions:R:4:c_diameter\[1\]:R:1:c_diameter\[2\]:R:1:c_diameter\[3\]:R:1:forces:R:3:torques:R:3 separation_distance=3.798591980410162 energy=-0.02181037259356735 pbc="F F F"
X       10.00000000      10.00000000      10.00000000       1.00000000       0.00000000       0.00000000       0.00000000       1.00000000       1.50000000       2.00000000       0.05773168       0.00000000       0.00000000      -0.00000000      -0.00000000       0.00000000
X       13.79859198      10.00000000      10.00000000       0.70710678       0.00000000       0.00000000       0.70710678       1.00000000       1.50000000       2.00000000      -0.05773168      -0.00000000      -0.00000000      -0.00000000      -0.00000000      -0.00000000
2
Lattice="20.0 0.0 0.0 0.0 20.0 0.0 0.0 0.0 20.0" Properties=species:S:1:pos:R:3:quaternions:R:4:c_diameter\[1\]:R:1:c_diameter\[2\]:R:1:c_diameter\[3\]:R:1:forces:R:3:torques:R:3 separation_distance=3.811600857055402 energy=-0.02107412431515675 pbc="F F F"
X       10.00000000      10.00000000      10.00000000       1.00000000       0.00000000       0.00000000       0.00000000       1.00000000       1.50000000       2.00000000       0.05547696       0.00000000       0.00000000      -0.00000000      -0.00000000       0.00000000
X       13.81160086      10.00000000      10.00000000       0.70710678       0.00000000       0.00000000       0.70710678       1.00000000       1.50000000       2.00000000      -0.05547696      -0.00000000      -0.00000000      -0.00000000      -0.00000000      -0.00000000
2
Lattice="20.0 0.0 0.0 0.0 20.0 0.0 0.0 0.0 20.0" Properties=species:S:1:pos:R:3:quaternions:R:4:c_diameter\[1\]:R:1:c_diameter\[2\]:R:1:c_diameter\[3\]:R:1:forces:R:3:torques:R:3 separation_distance=3.824609733700642 energy=-0.020366556352917054 pbc="F F F"
X       10.00000000      10.00000000      10.00000000       1.00000000       0.00000000       0.00000000       0.00000000       1.00000000       1.50000000       2.00000000       0.05332151       0.00000000       0.00000000      -0.00000000      -0.00000000       0.00000000
X       13.82460973      10.00000000      10.00000000       0.70710678       0.00000000       0.00000000       0.70710678       1.00000000       1.50000000       2.00000000      -0.05332151      -0.00000000      -0.00000000      -0.00000000      -0.00000000      -0.00000000
2
Lattice="20.0 0.0 0.0 0.0 20.0 0.0 0.0 0.0 20.0" Properties=species:S:1:pos:R:3:quaternions:R:4:c_diameter\[1\]:R:1:c_diameter\[2\]:R:1:c_diameter\[3\]:R:1:forces:R:3:torques:R:3 separation_distance=3.8376186103458827 energy=-0.019686409094241457 pbc="F F F"
X       10.00000000      10.00000000      10.00000000       1.00000000       0.00000000       0.00000000       0.00000000       1.00000000       1.50000000       2.00000000       0.05126048       0.00000000       0.00000000      -0.00000000      -0.00000000       0.00000000
X       13.83761861      10.00000000      10.00000000       0.70710678       0.00000000       0.00000000       0.70710678       1.00000000       1.50000000       2.00000000      -0.05126048      -0.00000000      -0.00000000      -0.00000000      -0.00000000      -0.00000000
2
Lattice="20.0 0.0 0.0 0.0 20.0 0.0 0.0 0.0 20.0" Properties=species:S:1:pos:R:3:quaternions:R:4:c_diameter\[1\]:R:1:c_diameter\[2\]:R:1:c_diameter\[3\]:R:1:forces:R:3:torques:R:3 separation_distance=3.8506274869911232 energy=-0.019032484091408886 pbc="F F F"
X       10.00000000      10.00000000      10.00000000       1.00000000       0.00000000       0.00000000       0.00000000       1.00000000       1.50000000       2.00000000       0.04928932       0.00000000       0.00000000      -0.00000000      -0.00000000       0.00000000
X       13.85062749      10.00000000      10.00000000       0.70710678       0.00000000       0.00000000       0.70710678       1.00000000       1.50000000       2.00000000      -0.04928932      -0.00000000      -0.00000000      -0.00000000      -0.00000000      -0.00000000
2
Lattice="20.0 0.0 0.0 0.0 20.0 0.0 0.0 0.0 20.0" Properties=species:S:1:pos:R:3:quaternions:R:4:c_diameter\[1\]:R:1:c_diameter\[2\]:R:1:c_diameter\[3\]:R:1:forces:R:3:torques:R:3 separation_distance=3.8636363636363633 energy=-0.01840364083619673 pbc="F F F"
X       10.00000000      10.00000000      10.00000000       1.00000000       0.00000000       0.00000000       0.00000000       1.00000000       1.50000000       2.00000000       0.04740368       0.00000000       0.00000000      -0.00000000      -0.00000000       0.00000000
X       13.86363636      10.00000000      10.00000000       0.70710678       0.00000000       0.00000000       0.70710678       1.00000000       1.50000000       2.00000000      -0.04740368      -0.00000000      -0.00000000      -0.00000000      -0.00000000      -0.00000000
