2
Lattice="20.0 0.0 0.0 0.0 20.0 0.0 0.0 0.0 20.0" Properties=species:S:1:pos:R:3:quaternions:R:4:c_diameter\[1\]:R:1:c_diameter\[2\]:R:1:c_diameter\[3\]:R:1:angles:R:1:forces:R:3:torques:R:3 separation_distance=1.7438271604938271 energy=-0.3655085684764524 pbc="F F F"
X       10.00000000      10.00000000      10.00000000       1.00000000       0.00000000       0.00000000       0.00000000       1.00000000       2.00000000       1.00000000       0.00000000       1.71122814       0.00000000       0.00000000      -0.00000000      -0.00000000      -0.00000000
X       11.74382716      10.00000000      10.00000000       1.00000000       0.00000000       0.00000000       0.00000000       1.00000000       2.00000000       1.00000000       0.00000000      -1.71122814      -0.00000000      -0.00000000      -0.00000000      -0.00000000      -0.00000000
2
Lattice="20.0 0.0 0.0 0.0 20.0 0.0 0.0 0.0 20.0" Properties=species:S:1:pos:R:3:quaternions:R:4:c_diameter\[1\]:R:1:c_diameter\[2\]:R:1:c_diameter\[3\]:R:1:angles:R:1:forces:R:3:torques:R:3 separation_distance=1.7438271604938271 energy=-0.3655085684764524 pbc="F F F"
X       10.00000000      10.00000000      10.00000000       1.00000000       0.00000000       0.00000000       0.00000000       1.00000000       2.00000000       1.00000000       0.00000000       1.71122814       0.00000000       0.00000000      -0.00000000      -0.00000000      -0.00000000
X       11.74382716      10.00000000      10.00000000       0.98480775       0.00000000       0.17364818       0.00000000       1.00000000       2.00000000       1.00000000       0.34906585      -1.71122814      -0.00000000      -0.00000000      -0.00000000      -0.00000000      -0.00000000
2
Lattice="20.0 0.0 0.0 0.0 20.0 0.0 0.0 0.0 20.0" Properties=species:S:1:pos:R:3:quaternions:R:4:c_diameter\[1\]:R:1:c_diameter\[2\]:R:1:c_diameter\[3\]:R:1:angles:R:1:forces:R:3:torques:R:3 separation_distance=1.7438271604938271 energy=-0.3655085684764524 pbc="F F F"
X       10.00000000      10.00000000      10.00000000       1.00000000       0.00000000       0.00000000       0.00000000       1.00000000       2.00000000       1.00000000       0.00000000       1.71122814       0.00000000       0.00000000      -0.00000000      -0.00000000      -0.00000000
X       11.74382716      10.00000000      10.00000000       0.93969262       0.00000000       0.34202014       0.00000000       1.00000000       2.00000000       1.00000000       0.69813170      -1.71122814      -0.00000000      -0.00000000      -0.00000000      -0.00000000      -0.00000000
2
Lattice="20.0 0.0 0.0 0.0 20.0 0.0 0.0 0.0 20.0" Properties=species:S:1:pos:R:3:quaternions:R:4:c_diameter\[1\]:R:1:c_diameter\[2\]:R:1:c_diameter\[3\]:R:1:angles:R:1:forces:R:3:torques:R:3 separation_distance=1.7438271604938271 energy=-0.3655085684764524 pbc="F F F"
X       10.00000000      10.00000000      10.00000000       1.00000000       0.00000000       0.00000000       0.00000000       1.00000000       2.00000000       1.00000000       0.00000000       1.71122814       0.00000000       0.00000000      -0.00000000      -0.00000000      -0.00000000
X       11.74382716      10.00000000      10.00000000       0.86602540       0.00000000       0.50000000       0.00000000       1.00000000       2.00000000       1.00000000       1.04719755      -1.71122814      -0.00000000      -0.00000000      -0.00000000      -0.00000000      -0.00000000
2
Lattice="20.0 0.0 0.0 0.0 20.0 0.0 0.0 0.0 20.0" Properties=species:S:1:pos:R:3:quaternions:R:4:c_diameter\[1\]:R:1:c_diameter\[2\]:R:1:c_diameter\[3\]:R:1:angles:R:1:forces:R:3:torques:R:3 separation_distance=1.7438271604938271 energy=-0.3655085684764524 pbc="F F F"
X       10.00000000      10.00000000      10.00000000       1.00000000       0.00000000       0.00000000       0.00000000       1.00000000       2.00000000       1.00000000       0.00000000       1.71122814       0.00000000       0.00000000      -0.00000000      -0.00000000      -0.00000000
X       11.74382716      10.00000000      10.00000000       0.76604444       0.00000000       0.64278761       0.00000000       1.00000000       2.00000000       1.00000000       1.39626340      -1.71122814      -0.00000000      -0.00000000      -0.00000000      -0.00000000      -0.00000000
2
Lattice="20.0 0.0 0.0 0.0 20.0 0.0 0.0 0.0 20.0" Properties=species:S:1:pos:R:3:quaternions:R:4:c_diameter\[1\]:R:1:c_diameter\[2\]:R:1:c_diameter\[3\]:R:1:angles:R:1:forces:R:3:torques:R:3 separation_distance=1.7438271604938271 energy=-0.3655085684764524 pbc="F F F"
X       10.00000000      10.00000000      10.00000000       1.00000000       0.00000000       0.00000000       0.00000000       1.00000000       2.00000000       1.00000000       0.00000000       1.71122814       0.00000000       0.00000000      -0.00000000      -0.00000000      -0.00000000
X       11.74382716      10.00000000      10.00000000       0.64278761       0.00000000       0.76604444       0.00000000       1.00000000       2.00000000       1.00000000       1.74532925      -1.71122814      -0.00000000      -0.00000000      -0.00000000      -0.00000000      -0.00000000
2
Lattice="20.0 0.0 0.0 0.0 20.0 0.0 0.0 0.0 20.0" Properties=species:S:1:pos:R:3:quaternions:R:4:c_diameter\[1\]:R:1:c_diameter\[2\]:R:1:c_diameter\[3\]:R:1:angles:R:1:forces:R:3:torques:R:3 separation_distance=1.7438271604938271 energy=-0.3655085684764524 pbc="F F F"
X       10.00000000      10.00000000      10.00000000       1.00000000       0.00000000       0.00000000       0.00000000       1.00000000       2.00000000       1.00000000       0.00000000       1.71122814       0.00000000       0.00000000      -0.00000000      -0.00000000      -0.00000000
X       11.74382716      10.00000000      10.00000000       0.50000000       0.00000000       0.86602540       0.00000000       1.00000000       2.00000000       1.00000000       2.09439510      -1.71122814      -0.00000000      -0.00000000      -0.00000000      -0.00000000      -0.00000000
2
Lattice="20.0 0.0 0.0 0.0 20.0 0.0 0.0 0.0 20.0" Properties=species:S:1:pos:R:3:quaternions:R:4:c_diameter\[1\]:R:1:c_diameter\[2\]:R:1:c_diameter\[3\]:R:1:angles:R:1:forces:R:3:torques:R:3 separation_distance=1.7438271604938271 energy=-0.3655085684764524 pbc="F F F"
X       10.00000000      10.00000000      10.00000000       1.00000000       0.00000000       0.00000000       0.00000000       1.00000000       2.00000000       1.00000000       0.00000000       1.71122814       0.00000000       0.00000000      -0.00000000      -0.00000000      -0.00000000
X       11.74382716      10.00000000      10.00000000       0.34202014       0.00000000       0.93969262       0.00000000       1.00000000       2.00000000       1.00000000       2.44346095      -1.71122814      -0.00000000      -0.00000000      -0.00000000      -0.00000000      -0.00000000
2
Lattice="20.0 0.0 0.0 0.0 20.0 0.0 0.0 0.0 20.0" Properties=species:S:1:pos:R:3:quaternions:R:4:c_diameter\[1\]:R:1:c_diameter\[2\]:R:1:c_diameter\[3\]:R:1:angles:R:1:forces:R:3:torques:R:3 separation_distance=1.7438271604938271 energy=-0.3655085684764524 pbc="F F F"
X       10.00000000      10.00000000      10.00000000       1.00000000       0.00000000       0.00000000       0.00000000       1.00000000       2.00000000       1.00000000       0.00000000       1.71122814       0.00000000       0.00000000      -0.00000000      -0.00000000      -0.00000000
X       11.74382716      10.00000000      10.00000000       0.17364818       0.00000000       0.98480775       0.00000000       1.00000000       2.00000000       1.00000000       2.79252680      -1.71122814      -0.00000000      -0.00000000      -0.00000000      -0.00000000      -0.00000000
2
Lattice="20.0 0.0 0.0 0.0 20.0 0.0 0.0 0.0 20.0" Properties=species:S:1:pos:R:3:quaternions:R:4:c_diameter\[1\]:R:1:c_diameter\[2\]:R:1:c_diameter\[3\]:R:1:angles:R:1:forces:R:3:torques:R:3 separation_distance=1.7438271604938271 energy=-0.3655085684764524 pbc="F F F"
X       10.00000000      10.00000000      10.00000000       1.00000000       0.00000000       0.00000000       0.00000000       1.00000000       2.00000000       1.00000000       0.00000000       1.71122814       0.00000000       0.00000000      -0.00000000      -0.00000000      -0.00000000
X       11.74382716      10.00000000      10.00000000       0.00000000       0.00000000       1.00000000       0.00000000       1.00000000       2.00000000       1.00000000       3.14159265      -1.71122814      -0.00000000      -0.00000000      -0.00000000      -0.00000000      -0.00000000
2
Lattice="20.0 0.0 0.0 0.0 20.0 0.0 0.0 0.0 20.0" Properties=species:S:1:pos:R:3:quaternions:R:4:c_diameter\[1\]:R:1:c_diameter\[2\]:R:1:c_diameter\[3\]:R:1:angles:R:1:forces:R:3:torques:R:3 separation_distance=2.060886644219978 energy=-0.10667537480874172 pbc="F F F"
X       10.00000000      10.00000000      10.00000000       1.00000000       0.00000000       0.00000000       0.00000000       1.00000000       2.00000000       1.00000000       0.00000000       0.34137469       0.00000000       0.00000000      -0.00000000      -0.00000000      -0.00000000
X       12.06088664      10.00000000      10.00000000       1.00000000       0.00000000       0.00000000       0.00000000       1.00000000       2.00000000       1.00000000       0.00000000      -0.34137469      -0.00000000      -0.00000000      -0.00000000      -0.00000000      -0.00000000
2
Lattice="20.0 0.0 0.0 0.0 20.0 0.0 0.0 0.0 20.0" Properties=species:S:1:pos:R:3:quaternions:R:4:c_diameter\[1\]:R:1:c_diameter\[2\]:R:1:c_diameter\[3\]:R:1:angles:R:1:forces:R:3:torques:R:3 separation_distance=2.060886644219978 energy=-0.10667537480874172 pbc="F F F"
X       10.00000000      10.00000000      10.00000000       1.00000000       0.00000000       0.00000000       0.00000000       1.00000000       2.00000000       1.00000000       0.00000000       0.34137469       0.00000000       0.00000000      -0.00000000      -0.00000000      -0.00000000
X       12.06088664      10.00000000      10.00000000       0.98480775       0.00000000       0.17364818       0.00000000       1.00000000       2.00000000       1.00000000       0.34906585      -0.34137469      -0.00000000      -0.00000000      -0.00000000      -0.00000000      -0.00000000
2
Lattice="20.0 0.0 0.0 0.0 20.0 0.0 0.0 0.0 20.0" Properties=species:S:1:pos:R:3:quaternions:R:4:c_diameter\[1\]:R:1:c_diameter\[2\]:R:1:c_diameter\[3\]:R:1:angles:R:1:forces:R:3:torques:R:3 separation_distance=2.060886644219978 energy=-0.10667537480874172 pbc="F F F"
X       10.00000000      10.00000000      10.00000000       1.00000000       0.00000000       0.00000000       0.00000000       1.00000000       2.00000000       1.00000000       0.00000000       0.34137469       0.00000000       0.00000000      -0.00000000      -0.00000000      -0.00000000
X       12.06088664      10.00000000      10.00000000       0.93969262       0.00000000       0.34202014       0.00000000       1.00000000       2.00000000       1.00000000       0.69813170      -0.34137469      -0.00000000      -0.00000000      -0.00000000      -0.00000000      -0.00000000
2
Lattice="20.0 0.0 0.0 0.0 20.0 0.0 0.0 0.0 20.0" Properties=species:S:1:pos:R:3:quaternions:R:4:c_diameter\[1\]:R:1:c_diameter\[2\]:R:1:c_diameter\[3\]:R:1:angles:R:1:forces:R:3:torques:R:3 separation_distance=2.060886644219978 energy=-0.10667537480874172 pbc="F F F"
X       10.00000000      10.00000000      10.00000000       1.00000000       0.00000000       0.00000000       0.00000000       1.00000000       2.00000000       1.00000000       0.00000000       0.34137469       0.00000000       0.00000000      -0.00000000      -0.00000000      -0.00000000
X       12.06088664      10.00000000      10.00000000       0.86602540       0.00000000       0.50000000       0.00000000       1.00000000       2.00000000       1.00000000       1.04719755      -0.34137469      -0.00000000      -0.00000000      -0.00000000      -0.00000000      -0.00000000
2
Lattice="20.0 0.0 0.0 0.0 20.0 0.0 0.0 0.0 20.0" Properties=species:S:1:pos:R:3:quaternions:R:4:c_diameter\[1\]:R:1:c_diameter\[2\]:R:1:c_diameter\[3\]:R:1:angles:R:1:forces:R:3:torques:R:3 separation_distance=2.060886644219978 energy=-0.10667537480874172 pbc="F F F"
X       10.00000000      10.00000000      10.00000000       1.00000000       0.00000000       0.00000000       0.00000000       1.00000000       2.00000000       1.00000000       0.00000000       0.34137469       0.00000000       0.00000000      -0.00000000      -0.00000000      -0.00000000
X       12.06088664      10.00000000      10.00000000       0.76604444       0.00000000       0.64278761       0.00000000       1.00000000       2.00000000       1.00000000       1.39626340      -0.34137469      -0.00000000      -0.00000000      -0.00000000      -0.00000000      -0.00000000
2
Lattice="20.0 0.0 0.0 0.0 20.0 0.0 0.0 0.0 20.0" Properties=species:S:1:pos:R:3:quaternions:R:4:c_diameter\[1\]:R:1:c_diameter\[2\]:R:1:c_diameter\[3\]:R:1:angles:R:1:forces:R:3:torques:R:3 separation_distance=2.060886644219978 energy=-0.10667537480874172 pbc="F F F"
X       10.00000000      10.00000000      10.00000000       1.00000000       0.00000000       0.00000000       0.00000000       1.00000000       2.00000000       1.00000000       0.00000000       0.34137469       0.00000000       0.00000000      -0.00000000      -0.00000000      -0.00000000
X       12.06088664      10.00000000      10.00000000       0.64278761       0.00000000       0.76604444       0.00000000       1.00000000       2.00000000       1.00000000       1.74532925      -0.34137469      -0.00000000      -0.00000000      -0.00000000      -0.00000000      -0.00000000
2
Lattice="20.0 0.0 0.0 0.0 20.0 0.0 0.0 0.0 20.0" Properties=species:S:1:pos:R:3:quaternions:R:4:c_diameter\[1\]:R:1:c_diameter\[2\]:R:1:c_diameter\[3\]:R:1:angles:R:1:forces:R:3:torques:R:3 separation_distance=2.060886644219978 energy=-0.10667537480874172 pbc="F F F"
X       10.00000000      10.00000000      10.00000000       1.00000000       0.00000000       0.00000000       0.00000000       1.00000000       2.00000000       1.00000000       0.00000000       0.34137469       0.00000000       0.00000000      -0.00000000      -0.00000000      -0.00000000
X       12.06088664      10.00000000      10.00000000       0.50000000       0.00000000       0.86602540       0.00000000       1.00000000       2.00000000       1.00000000       2.09439510      -0.34137469      -0.00000000      -0.00000000      -0.00000000      -0.00000000      -0.00000000
2
Lattice="20.0 0.0 0.0 0.0 20.0 0.0 0.0 0.0 20.0" Properties=species:S:1:pos:R:3:quaternions:R:4:c_diameter\[1\]:R:1:c_diameter\[2\]:R:1:c_diameter\[3\]:R:1:angles:R:1:forces:R:3:torques:R:3 separation_distance=2.060886644219978 energy=-0.10667537480874172 pbc="F F F"
X       10.00000000      10.00000000      10.00000000       1.00000000       0.00000000       0.00000000       0.00000000       1.00000000       2.00000000       1.00000000       0.00000000       0.34137469       0.00000000       0.00000000      -0.00000000      -0.00000000      -0.00000000
X       12.06088664      10.00000000      10.00000000       0.34202014       0.00000000       0.93969262       0.00000000       1.00000000       2.00000000       1.00000000       2.44346095      -0.34137469      -0.00000000      -0.00000000      -0.00000000      -0.00000000      -0.00000000
2
Lattice="20.0 0.0 0.0 0.0 20.0 0.0 0.0 0.0 20.0" Properties=species:S:1:pos:R:3:quaternions:R:4:c_diameter\[1\]:R:1:c_diameter\[2\]:R:1:c_diameter\[3\]:R:1:angles:R:1:forces:R:3:torques:R:3 separation_distance=2.060886644219978 energy=-0.10667537480874172 pbc="F F F"
X       10.00000000      10.00000000      10.00000000       1.00000000       0.00000000       0.00000000       0.00000000       1.00000000       2.00000000       1.00000000       0.00000000       0.34137469       0.00000000       0.00000000      -0.00000000      -0.00000000      -0.00000000
X       12.06088664      10.00000000      10.00000000       0.17364818       0.00000000       0.98480775       0.00000000       1.00000000       2.00000000       1.00000000       2.79252680      -0.34137469      -0.00000000      -0.00000000      -0.00000000      -0.00000000      -0.00000000
2
Lattice="20.0 0.0 0.0 0.0 20.0 0.0 0.0 0.0 20.0" Properties=species:S:1:pos:R:3:quaternions:R:4:c_diameter\[1\]:R:1:c_diameter\[2\]:R:1:c_diameter\[3\]:R:1:angles:R:1:forces:R:3:torques:R:3 separation_distance=2.060886644219978 energy=-0.10667537480874172 pbc="F F F"
X       10.00000000      10.00000000      10.00000000       1.00000000       0.00000000       0.00000000       0.00000000       1.00000000       2.00000000       1.00000000       0.00000000       0.34137469       0.00000000       0.00000000      -0.00000000      -0.00000000      -0.00000000
X       12.06088664      10.00000000      10.00000000       0.00000000       0.00000000       1.00000000       0.00000000       1.00000000       2.00000000       1.00000000       3.14159265      -0.34137469      -0.00000000      -0.00000000      -0.00000000      -0.00000000      -0.00000000
2
Lattice="20.0 0.0 0.0 0.0 20.0 0.0 0.0 0.0 20.0" Properties=species:S:1:pos:R:3:quaternions:R:4:c_diameter\[1\]:R:1:c_diameter\[2\]:R:1:c_diameter\[3\]:R:1:angles:R:1:forces:R:3:torques:R:3 separation_distance=2.377946127946128 energy=-0.04483055869236793 pbc="F F F"
X       10.00000000      10.00000000      10.00000000       1.00000000       0.00000000       0.00000000       0.00000000       1.00000000       2.00000000       1.00000000       0.00000000       0.10528496       0.00000000       0.00000000      -0.00000000      -0.00000000      -0.00000000
X       12.37794613      10.00000000      10.00000000       1.00000000       0.00000000       0.00000000       0.00000000       1.00000000       2.00000000       1.00000000       0.00000000      -0.10528496      -0.00000000      -0.00000000      -0.00000000      -0.00000000      -0.00000000
2
Lattice="20.0 0.0 0.0 0.0 20.0 0.0 0.0 0.0 20.0" Properties=species:S:1:pos:R:3:quaternions:R:4:c_diameter\[1\]:R:1:c_diameter\[2\]:R:1:c_diameter\[3\]:R:1:angles:R:1:forces:R:3:torques:R:3 separation_distance=2.377946127946128 energy=-0.04483055869236793 pbc="F F F"
X       10.00000000      10.00000000      10.00000000       1.00000000       0.00000000       0.00000000       0.00000000       1.00000000       2.00000000       1.00000000       0.00000000       0.10528496       0.00000000       0.00000000      -0.00000000      -0.00000000      -0.00000000
X       12.37794613      10.00000000      10.00000000       0.98480775       0.00000000       0.17364818       0.00000000       1.00000000       2.00000000       1.00000000       0.34906585      -0.10528496      -0.00000000      -0.00000000      -0.00000000      -0.00000000      -0.00000000
2
Lattice="20.0 0.0 0.0 0.0 20.0 0.0 0.0 0.0 20.0" Properties=species:S:1:pos:R:3:quaternions:R:4:c_diameter\[1\]:R:1:c_diameter\[2\]:R:1:c_diameter\[3\]:R:1:angles:R:1:forces:R:3:torques:R:3 separation_distance=2.377946127946128 energy=-0.04483055869236793 pbc="F F F"
X       10.00000000      10.00000000      10.00000000       1.00000000       0.00000000       0.00000000       0.00000000       1.00000000       2.00000000       1.00000000       0.00000000       0.10528496       0.00000000       0.00000000      -0.00000000      -0.00000000      -0.00000000
X       12.37794613      10.00000000      10.00000000       0.93969262       0.00000000       0.34202014       0.00000000       1.00000000       2.00000000       1.00000000       0.69813170      -0.10528496      -0.00000000      -0.00000000      -0.00000000      -0.00000000      -0.00000000
2
Lattice="20.0 0.0 0.0 0.0 20.0 0.0 0.0 0.0 20.0" Properties=species:S:1:pos:R:3:quaternions:R:4:c_diameter\[1\]:R:1:c_diameter\[2\]:R:1:c_diameter\[3\]:R:1:angles:R:1:forces:R:3:torques:R:3 separation_distance=2.377946127946128 energy=-0.04483055869236793 pbc="F F F"
X       10.00000000      10.00000000      10.00000000       1.00000000       0.00000000       0.00000000       0.00000000       1.00000000       2.00000000       1.00000000       0.00000000       0.10528496       0.00000000       0.00000000      -0.00000000      -0.00000000      -0.00000000
X       12.37794613      10.00000000      10.00000000       0.86602540       0.00000000       0.50000000       0.00000000       1.00000000       2.00000000       1.00000000       1.04719755      -0.10528496      -0.00000000      -0.00000000      -0.00000000      -0.00000000      -0.00000000
2
Lattice="20.0 0.0 0.0 0.0 20.0 0.0 0.0 0.0 20.0" Properties=species:S:1:pos:R:3:quaternions:R:4:c_diameter\[1\]:R:1:c_diameter\[2\]:R:1:c_diameter\[3\]:R:1:angles:R:1:forces:R:3:torques:R:3 separation_distance=2.377946127946128 energy=-0.04483055869236793 pbc="F F F"
X       10.00000000      10.00000000      10.00000000       1.00000000       0.00000000       0.00000000       0.00000000       1.00000000       2.00000000       1.00000000       0.00000000       0.10528496       0.00000000       0.00000000      -0.00000000      -0.00000000      -0.00000000
X       12.37794613      10.00000000      10.00000000       0.76604444       0.00000000       0.64278761       0.00000000       1.00000000       2.00000000       1.00000000       1.39626340      -0.10528496      -0.00000000      -0.00000000      -0.00000000      -0.00000000      -0.00000000
2
Lattice="20.0 0.0 0.0 0.0 20.0 0.0 0.0 0.0 20.0" Properties=species:S:1:pos:R:3:quaternions:R:4:c_diameter\[1\]:R:1:c_diameter\[2\]:R:1:c_diameter\[3\]:R:1:angles:R:1:forces:R:3:torques:R:3 separation_distance=2.377946127946128 energy=-0.04483055869236793 pbc="F F F"
X       10.00000000      10.00000000      10.00000000       1.00000000       0.00000000       0.00000000       0.00000000       1.00000000       2.00000000       1.00000000       0.00000000       0.10528496       0.00000000       0.00000000      -0.00000000      -0.00000000      -0.00000000
X       12.37794613      10.00000000      10.00000000       0.64278761       0.00000000       0.76604444       0.00000000       1.00000000       2.00000000       1.00000000       1.74532925      -0.10528496      -0.00000000      -0.00000000      -0.00000000      -0.00000000      -0.00000000
2
Lattice="20.0 0.0 0.0 0.0 20.0 0.0 0.0 0.0 20.0" Properties=species:S:1:pos:R:3:quaternions:R:4:c_diameter\[1\]:R:1:c_diameter\[2\]:R:1:c_diameter\[3\]:R:1:angles:R:1:forces:R:3:torques:R:3 separation_distance=2.377946127946128 energy=-0.04483055869236793 pbc="F F F"
X       10.00000000      10.00000000      10.00000000       1.00000000       0.00000000       0.00000000       0.00000000       1.00000000       2.00000000       1.00000000       0.00000000       0.10528496       0.00000000       0.00000000      -0.00000000      -0.00000000      -0.00000000
X       12.37794613      10.00000000      10.00000000       0.50000000       0.00000000       0.86602540       0.00000000       1.00000000       2.00000000       1.00000000       2.09439510      -0.10528496      -0.00000000      -0.00000000      -0.00000000      -0.00000000      -0.00000000
2
Lattice="20.0 0.0 0.0 0.0 20.0 0.0 0.0 0.0 20.0" Properties=species:S:1:pos:R:3:quaternions:R:4:c_diameter\[1\]:R:1:c_diameter\[2\]:R:1:c_diameter\[3\]:R:1:angles:R:1:forces:R:3:torques:R:3 separation_distance=2.377946127946128 energy=-0.04483055869236793 pbc="F F F"
X       10.00000000      10.00000000      10.00000000       1.00000000       0.00000000       0.00000000       0.00000000       1.00000000       2.00000000       1.00000000       0.00000000       0.10528496       0.00000000       0.00000000      -0.00000000      -0.00000000      -0.00000000
X       12.37794613      10.00000000      10.00000000       0.34202014       0.00000000       0.93969262       0.00000000       1.00000000       2.00000000       1.00000000       2.44346095      -0.10528496      -0.00000000      -0.00000000      -0.00000000      -0.00000000      -0.00000000
2
Lattice="20.0 0.0 0.0 0.0 20.0 0.0 0.0 0.0 20.0" Properties=species:S:1:pos:R:3:quaternions:R:4:c_diameter\[1\]:R:1:c_diameter\[2\]:R:1:c_diameter\[3\]:R:1:angles:R:1:forces:R:3:torques:R:3 separation_distance=2.377946127946128 energy=-0.04483055869236793 pbc="F F F"
X       10.00000000      10.00000000      10.00000000       1.00000000       0.00000000       0.00000000       0.00000000       1.00000000       2.00000000       1.00000000       0.00000000       0.10528496       0.00000000       0.00000000      -0.00000000      -0.00000000      -0.00000000
X       12.37794613      10.00000000      10.00000000       0.17364818       0.00000000       0.98480775       0.00000000       1.00000000       2.00000000       1.00000000       2.79252680      -0.10528496      -0.00000000      -0.00000000      -0.00000000      -0.00000000      -0.00000000
2
Lattice="20.0 0.0 0.0 0.0 20.0 0.0 0.0 0.0 20.0" Properties=species:S:1:pos:R:3:quaternions:R:4:c_diameter\[1\]:R:1:c_diameter\[2\]:R:1:c_diameter\[3\]:R:1:angles:R:1:forces:R:3:torques:R:3 separation_distance=2.377946127946128 energy=-0.04483055869236793 pbc="F F F"
X       10.00000000      10.00000000      10.00000000       1.00000000       0.00000000       0.00000000       0.00000000       1.00000000       2.00000000       1.00000000       0.00000000       0.10528496       0.00000000       0.00000000      -0.00000000      -0.00000000      -0.00000000
X       12.37794613      10.00000000      10.00000000       0.00000000       0.00000000       1.00000000       0.00000000       1.00000000       2.00000000       1.00000000       3.14159265      -0.10528496      -0.00000000      -0.00000000      -0.00000000      -0.00000000      -0.00000000
2
Lattice="20.0 0.0 0.0 0.0 20.0 0.0 0.0 0.0 20.0" Properties=species:S:1:pos:R:3:quaternions:R:4:c_diameter\[1\]:R:1:c_diameter\[2\]:R:1:c_diameter\[3\]:R:1:angles:R:1:forces:R:3:torques:R:3 separation_distance=2.6950056116722783 energy=-0.023205158005633587 pbc="F F F"
X       10.00000000      10.00000000      10.00000000       1.00000000       0.00000000       0.00000000       0.00000000       1.00000000       2.00000000       1.00000000       0.00000000       0.04282271       0.00000000       0.00000000      -0.00000000      -0.00000000      -0.00000000
X       12.69500561      10.00000000      10.00000000       1.00000000       0.00000000       0.00000000       0.00000000       1.00000000       2.00000000       1.00000000       0.00000000      -0.04282271      -0.00000000      -0.00000000      -0.00000000      -0.00000000      -0.00000000
2
Lattice="20.0 0.0 0.0 0.0 20.0 0.0 0.0 0.0 20.0" Properties=species:S:1:pos:R:3:quaternions:R:4:c_diameter\[1\]:R:1:c_diameter\[2\]:R:1:c_diameter\[3\]:R:1:angles:R:1:forces:R:3:torques:R:3 separation_distance=2.6950056116722783 energy=-0.023205158005633587 pbc="F F F"
X       10.00000000      10.00000000      10.00000000       1.00000000       0.00000000       0.00000000       0.00000000       1.00000000       2.00000000       1.00000000       0.00000000       0.04282271       0.00000000       0.00000000      -0.00000000      -0.00000000      -0.00000000
X       12.69500561      10.00000000      10.00000000       0.98480775       0.00000000       0.17364818       0.00000000       1.00000000       2.00000000       1.00000000       0.34906585      -0.04282271      -0.00000000      -0.00000000      -0.00000000      -0.00000000      -0.00000000
2
Lattice="20.0 0.0 0.0 0.0 20.0 0.0 0.0 0.0 20.0" Properties=species:S:1:pos:R:3:quaternions:R:4:c_diameter\[1\]:R:1:c_diameter\[2\]:R:1:c_diameter\[3\]:R:1:angles:R:1:forces:R:3:torques:R:3 separation_distance=2.6950056116722783 energy=-0.023205158005633587 pbc="F F F"
X       10.00000000      10.00000000      10.00000000       1.00000000       0.00000000       0.00000000       0.00000000       1.00000000       2.00000000       1.00000000       0.00000000       0.04282271       0.00000000       0.00000000      -0.00000000      -0.00000000      -0.00000000
X       12.69500561      10.00000000      10.00000000       0.93969262       0.00000000       0.34202014       0.00000000       1.00000000       2.00000000       1.00000000       0.69813170      -0.04282271      -0.00000000      -0.00000000      -0.00000000      -0.00000000      -0.00000000
2
Lattice="20.0 0.0 0.0 0.0 20.0 0.0 0.0 0.0 20.0" Properties=species:S:1:pos:R:3:quaternions:R:4:c_diameter\[1\]:R:1:c_diameter\[2\]:R:1:c_diameter\[3\]:R:1:angles:R:1:forces:R:3:torques:R:3 separation_distance=2.6950056116722783 energy=-0.023205158005633587 pbc="F F F"
X       10.00000000      10.00000000      10.00000000       1.00000000       0.00000000       0.00000000       0.00000000       1.00000000       2.00000000       1.00000000       0.00000000       0.04282271       0.00000000       0.00000000      -0.00000000      -0.00000000      -0.00000000
X       12.69500561      10.00000000      10.00000000       0.86602540       0.00000000       0.50000000       0.00000000       1.00000000       2.00000000       1.00000000       1.04719755      -0.04282271      -0.00000000      -0.00000000      -0.00000000      -0.00000000      -0.00000000
2
Lattice="20.0 0.0 0.0 0.0 20.0 0.0 0.0 0.0 20.0" Properties=species:S:1:pos:R:3:quaternions:R:4:c_diameter\[1\]:R:1:c_diameter\[2\]:R:1:c_diameter\[3\]:R:1:angles:R:1:forces:R:3:torques:R:3 separation_distance=2.6950056116722783 energy=-0.023205158005633587 pbc="F F F"
X       10.00000000      10.00000000      10.00000000       1.00000000       0.00000000       0.00000000       0.00000000       1.00000000       2.00000000       1.00000000       0.00000000       0.04282271       0.00000000       0.00000000      -0.00000000      -0.00000000      -0.00000000
X       12.69500561      10.00000000      10.00000000       0.76604444       0.00000000       0.64278761       0.00000000       1.00000000       2.00000000       1.00000000       1.39626340      -0.04282271      -0.00000000      -0.00000000      -0.00000000      -0.00000000      -0.00000000
2
Lattice="20.0 0.0 0.0 0.0 20.0 0.0 0.0 0.0 20.0" Properties=species:S:1:pos:R:3:quaternions:R:4:c_diameter\[1\]:R:1:c_diameter\[2\]:R:1:c_diameter\[3\]:R:1:angles:R:1:forces:R:3:torques:R:3 separation_distance=2.6950056116722783 energy=-0.023205158005633587 pbc="F F F"
X       10.00000000      10.00000000      10.00000000       1.00000000       0.00000000       0.00000000       0.00000000       1.00000000       2.00000000       1.00000000       0.00000000       0.04282271       0.00000000       0.00000000      -0.00000000      -0.00000000      -0.00000000
X       12.69500561      10.00000000      10.00000000       0.64278761       0.00000000       0.76604444       0.00000000       1.00000000       2.00000000       1.00000000       1.74532925      -0.04282271      -0.00000000      -0.00000000      -0.00000000      -0.00000000      -0.00000000
2
Lattice="20.0 0.0 0.0 0.0 20.0 0.0 0.0 0.0 20.0" Properties=species:S:1:pos:R:3:quaternions:R:4:c_diameter\[1\]:R:1:c_diameter\[2\]:R:1:c_diameter\[3\]:R:1:angles:R:1:forces:R:3:torques:R:3 separation_distance=2.6950056116722783 energy=-0.023205158005633587 pbc="F F F"
X       10.00000000      10.00000000      10.00000000       1.00000000       0.00000000       0.00000000       0.00000000       1.00000000       2.00000000       1.00000000       0.00000000       0.04282271       0.00000000       0.00000000      -0.00000000      -0.00000000      -0.00000000
X       12.69500561      10.00000000      10.00000000       0.50000000       0.00000000       0.86602540       0.00000000       1.00000000       2.00000000       1.00000000       2.09439510      -0.04282271      -0.00000000      -0.00000000      -0.00000000      -0.00000000      -0.00000000
2
Lattice="20.0 0.0 0.0 0.0 20.0 0.0 0.0 0.0 20.0" Properties=species:S:1:pos:R:3:quaternions:R:4:c_diameter\[1\]:R:1:c_diameter\[2\]:R:1:c_diameter\[3\]:R:1:angles:R:1:forces:R:3:torques:R:3 separation_distance=2.6950056116722783 energy=-0.023205158005633587 pbc="F F F"
X       10.00000000      10.00000000      10.00000000       1.00000000       0.00000000       0.00000000       0.00000000       1.00000000       2.00000000       1.00000000       0.00000000       0.04282271       0.00000000       0.00000000      -0.00000000      -0.00000000      -0.00000000
X       12.69500561      10.00000000      10.00000000       0.34202014       0.00000000       0.93969262       0.00000000       1.00000000       2.00000000       1.00000000       2.44346095      -0.04282271      -0.00000000      -0.00000000      -0.00000000      -0.00000000      -0.00000000
2
Lattice="20.0 0.0 0.0 0.0 20.0 0.0 0.0 0.0 20.0" Properties=species:S:1:pos:R:3:quaternions:R:4:c_diameter\[1\]:R:1:c_diameter\[2\]:R:1:c_diameter\[3\]:R:1:angles:R:1:forces:R:3:torques:R:3 separation_distance=2.6950056116722783 energy=-0.023205158005633587 pbc="F F F"
X       10.00000000      10.00000000      10.00000000       1.00000000       0.00000000       0.00000000       0.00000000       1.00000000       2.00000000       1.00000000       0.00000000       0.04282271       0.00000000       0.00000000      -0.00000000      -0.00000000      -0.00000000
X       12.69500561      10.00000000      10.00000000       0.17364818       0.00000000       0.98480775       0.00000000       1.00000000       2.00000000       1.00000000       2.79252680      -0.04282271      -0.00000000      -0.00000000      -0.00000000      -0.00000000      -0.00000000
2
Lattice="20.0 0.0 0.0 0.0 20.0 0.0 0.0 0.0 20.0" Properties=species:S:1:pos:R:3:quaternions:R:4:c_diameter\[1\]:R:1:c_diameter\[2\]:R:1:c_diameter\[3\]:R:1:angles:R:1:forces:R:3:torques:R:3 separation_distance=2.6950056116722783 energy=-0.023205158005633587 pbc="F F F"
X       10.00000000      10.00000000      10.00000000       1.00000000       0.00000000       0.00000000       0.00000000       1.00000000       2.00000000       1.00000000       0.00000000       0.04282271       0.00000000       0.00000000      -0.00000000      -0.00000000      -0.00000000
X       12.69500561      10.00000000      10.00000000       0.00000000       0.00000000       1.00000000       0.00000000       1.00000000       2.00000000       1.00000000       3.14159265      -0.04282271      -0.00000000      -0.00000000      -0.00000000      -0.00000000      -0.00000000
2
Lattice="20.0 0.0 0.0 0.0 20.0 0.0 0.0 0.0 20.0" Properties=species:S:1:pos:R:3:quaternions:R:4:c_diameter\[1\]:R:1:c_diameter\[2\]:R:1:c_diameter\[3\]:R:1:angles:R:1:forces:R:3:torques:R:3 separation_distance=3.012065095398429 energy=-0.013654011460350834 pbc="F F F"
X       10.00000000      10.00000000      10.00000000       1.00000000       0.00000000       0.00000000       0.00000000       1.00000000       2.00000000       1.00000000       0.00000000       0.02077572       0.00000000       0.00000000      -0.00000000      -0.00000000      -0.00000000
X       13.01206510      10.00000000      10.00000000       1.00000000       0.00000000       0.00000000       0.00000000       1.00000000       2.00000000       1.00000000       0.00000000      -0.02077572      -0.00000000      -0.00000000      -0.00000000      -0.00000000      -0.00000000
2
Lattice="20.0 0.0 0.0 0.0 20.0 0.0 0.0 0.0 20.0" Properties=species:S:1:pos:R:3:quaternions:R:4:c_diameter\[1\]:R:1:c_diameter\[2\]:R:1:c_diameter\[3\]:R:1:angles:R:1:forces:R:3:torques:R:3 separation_distance=3.012065095398429 energy=-0.013654011460350834 pbc="F F F"
X       10.00000000      10.00000000      10.00000000       1.00000000       0.00000000       0.00000000       0.00000000       1.00000000       2.00000000       1.00000000       0.00000000       0.02077572       0.00000000       0.00000000      -0.00000000      -0.00000000      -0.00000000
X       13.01206510      10.00000000      10.00000000       0.98480775       0.00000000       0.17364818       0.00000000       1.00000000       2.00000000       1.00000000       0.34906585      -0.02077572      -0.00000000      -0.00000000      -0.00000000      -0.00000000      -0.00000000
2
Lattice="20.0 0.0 0.0 0.0 20.0 0.0 0.0 0.0 20.0" Properties=species:S:1:pos:R:3:quaternions:R:4:c_diameter\[1\]:R:1:c_diameter\[2\]:R:1:c_diameter\[3\]:R:1:angles:R:1:forces:R:3:torques:R:3 separation_distance=3.012065095398429 energy=-0.013654011460350834 pbc="F F F"
X       10.00000000      10.00000000      10.00000000       1.00000000       0.00000000       0.00000000       0.00000000       1.00000000       2.00000000       1.00000000       0.00000000       0.02077572       0.00000000       0.00000000      -0.00000000      -0.00000000      -0.00000000
X       13.01206510      10.00000000      10.00000000       0.93969262       0.00000000       0.34202014       0.00000000       1.00000000       2.00000000       1.00000000       0.69813170      -0.02077572      -0.00000000      -0.00000000      -0.00000000      -0.00000000      -0.00000000
2
Lattice="20.0 0.0 0.0 0.0 20.0 0.0 0.0 0.0 20.0" Properties=species:S:1:pos:R:3:quaternions:R:4:c_diameter\[1\]:R:1:c_diameter\[2\]:R:1:c_diameter\[3\]:R:1:angles:R:1:forces:R:3:torques:R:3 separation_distance=3.012065095398429 energy=-0.013654011460350834 pbc="F F F"
X       10.00000000      10.00000000      10.00000000       1.00000000       0.00000000       0.00000000       0.00000000       1.00000000       2.00000000       1.00000000       0.00000000       0.02077572       0.00000000       0.00000000      -0.00000000      -0.00000000      -0.00000000
X       13.01206510      10.00000000      10.00000000       0.86602540       0.00000000       0.50000000       0.00000000       1.00000000       2.00000000       1.00000000       1.04719755      -0.02077572      -0.00000000      -0.00000000      -0.00000000      -0.00000000      -0.00000000
2
Lattice="20.0 0.0 0.0 0.0 20.0 0.0 0.0 0.0 20.0" Properties=species:S:1:pos:R:3:quaternions:R:4:c_diameter\[1\]:R:1:c_diameter\[2\]:R:1:c_diameter\[3\]:R:1:angles:R:1:forces:R:3:torques:R:3 separation_distance=3.012065095398429 energy=-0.013654011460350834 pbc="F F F"
X       10.00000000      10.00000000      10.00000000       1.00000000       0.00000000       0.00000000       0.00000000       1.00000000       2.00000000       1.00000000       0.00000000       0.02077572       0.00000000       0.00000000      -0.00000000      -0.00000000      -0.00000000
X       13.01206510      10.00000000      10.00000000       0.76604444       0.00000000       0.64278761       0.00000000       1.00000000       2.00000000       1.00000000       1.39626340      -0.02077572      -0.00000000      -0.00000000      -0.00000000      -0.00000000      -0.00000000
2
Lattice="20.0 0.0 0.0 0.0 20.0 0.0 0.0 0.0 20.0" Properties=species:S:1:pos:R:3:quaternions:R:4:c_diameter\[1\]:R:1:c_diameter\[2\]:R:1:c_diameter\[3\]:R:1:angles:R:1:forces:R:3:torques:R:3 separation_distance=3.012065095398429 energy=-0.013654011460350834 pbc="F F F"
X       10.00000000      10.00000000      10.00000000       1.00000000       0.00000000       0.00000000       0.00000000       1.00000000       2.00000000       1.00000000       0.00000000       0.02077572       0.00000000       0.00000000      -0.00000000      -0.00000000      -0.00000000
X       13.01206510      10.00000000      10.00000000       0.64278761       0.00000000       0.76604444       0.00000000       1.00000000       2.00000000       1.00000000       1.74532925      -0.02077572      -0.00000000      -0.00000000      -0.00000000      -0.00000000      -0.00000000
2
Lattice="20.0 0.0 0.0 0.0 20.0 0.0 0.0 0.0 20.0" Properties=species:S:1:pos:R:3:quaternions:R:4:c_diameter\[1\]:R:1:c_diameter\[2\]:R:1:c_diameter\[3\]:R:1:angles:R:1:forces:R:3:torques:R:3 separation_distance=3.012065095398429 energy=-0.013654011460350834 pbc="F F F"
X       10.00000000      10.00000000      10.00000000       1.00000000       0.00000000       0.00000000       0.00000000       1.00000000       2.00000000       1.00000000       0.00000000       0.02077572       0.00000000       0.00000000      -0.00000000      -0.00000000      -0.00000000
X       13.01206510      10.00000000      10.00000000       0.50000000       0.00000000       0.86602540       0.00000000       1.00000000       2.00000000       1.00000000       2.09439510      -0.02077572      -0.00000000      -0.00000000      -0.00000000      -0.00000000      -0.00000000
2
Lattice="20.0 0.0 0.0 0.0 20.0 0.0 0.0 0.0 20.0" Properties=species:S:1:pos:R:3:quaternions:R:4:c_diameter\[1\]:R:1:c_diameter\[2\]:R:1:c_diameter\[3\]:R:1:angles:R:1:forces:R:3:torques:R:3 separation_distance=3.012065095398429 energy=-0.013654011460350834 pbc="F F F"
X       10.00000000      10.00000000      10.00000000       1.00000000       0.00000000       0.00000000       0.00000000       1.00000000       2.00000000       1.00000000       0.00000000       0.02077572       0.00000000       0.00000000      -0.00000000      -0.00000000      -0.00000000
X       13.01206510      10.00000000      10.00000000       0.34202014       0.00000000       0.93969262       0.00000000       1.00000000       2.00000000       1.00000000       2.44346095      -0.02077572      -0.00000000      -0.00000000      -0.00000000      -0.00000000      -0.00000000
2
Lattice="20.0 0.0 0.0 0.0 20.0 0.0 0.0 0.0 20.0" Properties=species:S:1:pos:R:3:quaternions:R:4:c_diameter\[1\]:R:1:c_diameter\[2\]:R:1:c_diameter\[3\]:R:1:angles:R:1:forces:R:3:torques:R:3 separation_distance=3.012065095398429 energy=-0.013654011460350834 pbc="F F F"
X       10.00000000      10.00000000      10.00000000       1.00000000       0.00000000       0.00000000       0.00000000       1.00000000       2.00000000       1.00000000       0.00000000       0.02077572       0.00000000       0.00000000      -0.00000000      -0.00000000      -0.00000000
X       13.01206510      10.00000000      10.00000000       0.17364818       0.00000000       0.98480775       0.00000000       1.00000000       2.00000000       1.00000000       2.79252680      -0.02077572      -0.00000000      -0.00000000      -0.00000000      -0.00000000      -0.00000000
2
Lattice="20.0 0.0 0.0 0.0 20.0 0.0 0.0 0.0 20.0" Properties=species:S:1:pos:R:3:quaternions:R:4:c_diameter\[1\]:R:1:c_diameter\[2\]:R:1:c_diameter\[3\]:R:1:angles:R:1:forces:R:3:torques:R:3 separation_distance=3.012065095398429 energy=-0.013654011460350834 pbc="F F F"
X       10.00000000      10.00000000      10.00000000       1.00000000       0.00000000       0.00000000       0.00000000       1.00000000       2.00000000       1.00000000       0.00000000       0.02077572       0.00000000       0.00000000      -0.00000000      -0.00000000      -0.00000000
X       13.01206510      10.00000000      10.00000000       0.00000000       0.00000000       1.00000000       0.00000000       1.00000000       2.00000000       1.00000000       3.14159265      -0.02077572      -0.00000000      -0.00000000      -0.00000000      -0.00000000      -0.00000000
2
Lattice="20.0 0.0 0.0 0.0 20.0 0.0 0.0 0.0 20.0" Properties=species:S:1:pos:R:3:quaternions:R:4:c_diameter\[1\]:R:1:c_diameter\[2\]:R:1:c_diameter\[3\]:R:1:angles:R:1:forces:R:3:torques:R:3 separation_distance=3.3291245791245796 energy=-0.008749704173509077 pbc="F F F"
X       10.00000000      10.00000000      10.00000000       1.00000000       0.00000000       0.00000000       0.00000000       1.00000000       2.00000000       1.00000000       0.00000000       0.01135906       0.00000000       0.00000000      -0.00000000      -0.00000000      -0.00000000
X       13.32912458      10.00000000      10.00000000       1.00000000       0.00000000       0.00000000       0.00000000       1.00000000       2.00000000       1.00000000       0.00000000      -0.01135906      -0.00000000      -0.00000000      -0.00000000      -0.00000000      -0.00000000
2
Lattice="20.0 0.0 0.0 0.0 20.0 0.0 0.0 0.0 20.0" Properties=species:S:1:pos:R:3:quaternions:R:4:c_diameter\[1\]:R:1:c_diameter\[2\]:R:1:c_diameter\[3\]:R:1:angles:R:1:forces:R:3:torques:R:3 separation_distance=3.3291245791245796 energy=-0.008749704173509077 pbc="F F F"
X       10.00000000      10.00000000      10.00000000       1.00000000       0.00000000       0.00000000       0.00000000       1.00000000       2.00000000       1.00000000       0.00000000       0.01135906       0.00000000       0.00000000      -0.00000000      -0.00000000      -0.00000000
X       13.32912458      10.00000000      10.00000000       0.98480775       0.00000000       0.17364818       0.00000000       1.00000000       2.00000000       1.00000000       0.34906585      -0.01135906      -0.00000000      -0.00000000      -0.00000000      -0.00000000      -0.00000000
2
Lattice="20.0 0.0 0.0 0.0 20.0 0.0 0.0 0.0 20.0" Properties=species:S:1:pos:R:3:quaternions:R:4:c_diameter\[1\]:R:1:c_diameter\[2\]:R:1:c_diameter\[3\]:R:1:angles:R:1:forces:R:3:torques:R:3 separation_distance=3.3291245791245796 energy=-0.008749704173509077 pbc="F F F"
X       10.00000000      10.00000000      10.00000000       1.00000000       0.00000000       0.00000000       0.00000000       1.00000000       2.00000000       1.00000000       0.00000000       0.01135906       0.00000000       0.00000000      -0.00000000      -0.00000000      -0.00000000
X       13.32912458      10.00000000      10.00000000       0.93969262       0.00000000       0.34202014       0.00000000       1.00000000       2.00000000       1.00000000       0.69813170      -0.01135906      -0.00000000      -0.00000000      -0.00000000      -0.00000000      -0.00000000
2
Lattice="20.0 0.0 0.0 0.0 20.0 0.0 0.0 0.0 20.0" Properties=species:S:1:pos:R:3:quaternions:R:4:c_diameter\[1\]:R:1:c_diameter\[2\]:R:1:c_diameter\[3\]:R:1:angles:R:1:forces:R:3:torques:R:3 separation_distance=3.3291245791245796 energy=-0.008749704173509077 pbc="F F F"
X       10.00000000      10.00000000      10.00000000       1.00000000       0.00000000       0.00000000       0.00000000       1.00000000       2.00000000       1.00000000       0.00000000       0.01135906       0.00000000       0.00000000      -0.00000000      -0.00000000      -0.00000000
X       13.32912458      10.00000000      10.00000000       0.86602540       0.00000000       0.50000000       0.00000000       1.00000000       2.00000000       1.00000000       1.04719755      -0.01135906      -0.00000000      -0.00000000      -0.00000000      -0.00000000      -0.00000000
2
Lattice="20.0 0.0 0.0 0.0 20.0 0.0 0.0 0.0 20.0" Properties=species:S:1:pos:R:3:quaternions:R:4:c_diameter\[1\]:R:1:c_diameter\[2\]:R:1:c_diameter\[3\]:R:1:angles:R:1:forces:R:3:torques:R:3 separation_distance=3.3291245791245796 energy=-0.008749704173509077 pbc="F F F"
X       10.00000000      10.00000000      10.00000000       1.00000000       0.00000000       0.00000000       0.00000000       1.00000000       2.00000000       1.00000000       0.00000000       0.01135906       0.00000000       0.00000000      -0.00000000      -0.00000000      -0.00000000
X       13.32912458      10.00000000      10.00000000       0.76604444       0.00000000       0.64278761       0.00000000       1.00000000       2.00000000       1.00000000       1.39626340      -0.01135906      -0.00000000      -0.00000000      -0.00000000      -0.00000000      -0.00000000
2
Lattice="20.0 0.0 0.0 0.0 20.0 0.0 0.0 0.0 20.0" Properties=species:S:1:pos:R:3:quaternions:R:4:c_diameter\[1\]:R:1:c_diameter\[2\]:R:1:c_diameter\[3\]:R:1:angles:R:1:forces:R:3:torques:R:3 separation_distance=3.3291245791245796 energy=-0.008749704173509077 pbc="F F F"
X       10.00000000      10.00000000      10.00000000       1.00000000       0.00000000       0.00000000       0.00000000       1.00000000       2.00000000       1.00000000       0.00000000       0.01135906       0.00000000       0.00000000      -0.00000000      -0.00000000      -0.00000000
X       13.32912458      10.00000000      10.00000000       0.64278761       0.00000000       0.76604444       0.00000000       1.00000000       2.00000000       1.00000000       1.74532925      -0.01135906      -0.00000000      -0.00000000      -0.00000000      -0.00000000      -0.00000000
2
Lattice="20.0 0.0 0.0 0.0 20.0 0.0 0.0 0.0 20.0" Properties=species:S:1:pos:R:3:quaternions:R:4:c_diameter\[1\]:R:1:c_diameter\[2\]:R:1:c_diameter\[3\]:R:1:angles:R:1:forces:R:3:torques:R:3 separation_distance=3.3291245791245796 energy=-0.008749704173509077 pbc="F F F"
X       10.00000000      10.00000000      10.00000000       1.00000000       0.00000000       0.00000000       0.00000000       1.00000000       2.00000000       1.00000000       0.00000000       0.01135906       0.00000000       0.00000000      -0.00000000      -0.00000000      -0.00000000
X       13.32912458      10.00000000      10.00000000       0.50000000       0.00000000       0.86602540       0.00000000       1.00000000       2.00000000       1.00000000       2.09439510      -0.01135906      -0.00000000      -0.00000000      -0.00000000      -0.00000000      -0.00000000
2
Lattice="20.0 0.0 0.0 0.0 20.0 0.0 0.0 0.0 20.0" Properties=species:S:1:pos:R:3:quaternions:R:4:c_diameter\[1\]:R:1:c_diameter\[2\]:R:1:c_diameter\[3\]:R:1:angles:R:1:forces:R:3:torques:R:3 separation_distance=3.3291245791245796 energy=-0.008749704173509077 pbc="F F F"
X       10.00000000      10.00000000      10.00000000       1.00000000       0.00000000       0.00000000       0.00000000       1.00000000       2.00000000       1.00000000       0.00000000       0.01135906       0.00000000       0.00000000      -0.00000000      -0.00000000      -0.00000000
X       13.32912458      10.00000000      10.00000000       0.34202014       0.00000000       0.93969262       0.00000000       1.00000000       2.00000000       1.00000000       2.44346095      -0.01135906      -0.00000000      -0.00000000      -0.00000000      -0.00000000      -0.00000000
2
Lattice="20.0 0.0 0.0 0.0 20.0 0.0 0.0 0.0 20.0" Properties=species:S:1:pos:R:3:quaternions:R:4:c_diameter\[1\]:R:1:c_diameter\[2\]:R:1:c_diameter\[3\]:R:1:angles:R:1:forces:R:3:torques:R:3 separation_distance=3.3291245791245796 energy=-0.008749704173509077 pbc="F F F"
X       10.00000000      10.00000000      10.00000000       1.00000000       0.00000000       0.00000000       0.00000000       1.00000000       2.00000000       1.00000000       0.00000000       0.01135906       0.00000000       0.00000000      -0.00000000      -0.00000000      -0.00000000
X       13.32912458      10.00000000      10.00000000       0.17364818       0.00000000       0.98480775       0.00000000       1.00000000       2.00000000       1.00000000       2.79252680      -0.01135906      -0.00000000      -0.00000000      -0.00000000      -0.00000000      -0.00000000
2
Lattice="20.0 0.0 0.0 0.0 20.0 0.0 0.0 0.0 20.0" Properties=species:S:1:pos:R:3:quaternions:R:4:c_diameter\[1\]:R:1:c_diameter\[2\]:R:1:c_diameter\[3\]:R:1:angles:R:1:forces:R:3:torques:R:3 separation_distance=3.3291245791245796 energy=-0.008749704173509077 pbc="F F F"
X       10.00000000      10.00000000      10.00000000       1.00000000       0.00000000       0.00000000       0.00000000       1.00000000       2.00000000       1.00000000       0.00000000       0.01135906       0.00000000       0.00000000      -0.00000000      -0.00000000      -0.00000000
X       13.32912458      10.00000000      10.00000000       0.00000000       0.00000000       1.00000000       0.00000000       1.00000000       2.00000000       1.00000000       3.14159265      -0.01135906      -0.00000000      -0.00000000      -0.00000000      -0.00000000      -0.00000000
2
Lattice="20.0 0.0 0.0 0.0 20.0 0.0 0.0 0.0 20.0" Properties=species:S:1:pos:R:3:quaternions:R:4:c_diameter\[1\]:R:1:c_diameter\[2\]:R:1:c_diameter\[3\]:R:1:angles:R:1:forces:R:3:torques:R:3 separation_distance=3.64618406285073 energy=-0.005956247362367363 pbc="F F F"
X       10.00000000      10.00000000      10.00000000       1.00000000       0.00000000       0.00000000       0.00000000       1.00000000       2.00000000       1.00000000       0.00000000       0.00676421       0.00000000       0.00000000      -0.00000000      -0.00000000      -0.00000000
X       13.64618406      10.00000000      10.00000000       1.00000000       0.00000000       0.00000000       0.00000000       1.00000000       2.00000000       1.00000000       0.00000000      -0.00676421      -0.00000000      -0.00000000      -0.00000000      -0.00000000      -0.00000000
2
Lattice="20.0 0.0 0.0 0.0 20.0 0.0 0.0 0.0 20.0" Properties=species:S:1:pos:R:3:quaternions:R:4:c_diameter\[1\]:R:1:c_diameter\[2\]:R:1:c_diameter\[3\]:R:1:angles:R:1:forces:R:3:torques:R:3 separation_distance=3.64618406285073 energy=-0.005956247362367363 pbc="F F F"
X       10.00000000      10.00000000      10.00000000       1.00000000       0.00000000       0.00000000       0.00000000       1.00000000       2.00000000       1.00000000       0.00000000       0.00676421       0.00000000       0.00000000      -0.00000000      -0.00000000      -0.00000000
X       13.64618406      10.00000000      10.00000000       0.98480775       0.00000000       0.17364818       0.00000000       1.00000000       2.00000000       1.00000000       0.34906585      -0.00676421      -0.00000000      -0.00000000      -0.00000000      -0.00000000      -0.00000000
2
Lattice="20.0 0.0 0.0 0.0 20.0 0.0 0.0 0.0 20.0" Properties=species:S:1:pos:R:3:quaternions:R:4:c_diameter\[1\]:R:1:c_diameter\[2\]:R:1:c_diameter\[3\]:R:1:angles:R:1:forces:R:3:torques:R:3 separation_distance=3.64618406285073 energy=-0.005956247362367363 pbc="F F F"
X       10.00000000      10.00000000      10.00000000       1.00000000       0.00000000       0.00000000       0.00000000       1.00000000       2.00000000       1.00000000       0.00000000       0.00676421       0.00000000       0.00000000      -0.00000000      -0.00000000      -0.00000000
X       13.64618406      10.00000000      10.00000000       0.93969262       0.00000000       0.34202014       0.00000000       1.00000000       2.00000000       1.00000000       0.69813170      -0.00676421      -0.00000000      -0.00000000      -0.00000000      -0.00000000      -0.00000000
2
Lattice="20.0 0.0 0.0 0.0 20.0 0.0 0.0 0.0 20.0" Properties=species:S:1:pos:R:3:quaternions:R:4:c_diameter\[1\]:R:1:c_diameter\[2\]:R:1:c_diameter\[3\]:R:1:angles:R:1:forces:R:3:torques:R:3 separation_distance=3.64618406285073 energy=-0.005956247362367363 pbc="F F F"
X       10.00000000      10.00000000      10.00000000       1.00000000       0.00000000       0.00000000       0.00000000       1.00000000       2.00000000       1.00000000       0.00000000       0.00676421       0.00000000       0.00000000      -0.00000000      -0.00000000      -0.00000000
X       13.64618406      10.00000000      10.00000000       0.86602540       0.00000000       0.50000000       0.00000000       1.00000000       2.00000000       1.00000000       1.04719755      -0.00676421      -0.00000000      -0.00000000      -0.00000000      -0.00000000      -0.00000000
2
Lattice="20.0 0.0 0.0 0.0 20.0 0.0 0.0 0.0 20.0" Properties=species:S:1:pos:R:3:quaternions:R:4:c_diameter\[1\]:R:1:c_diameter\[2\]:R:1:c_diameter\[3\]:R:1:angles:R:1:forces:R:3:torques:R:3 separation_distance=3.64618406285073 energy=-0.005956247362367363 pbc="F F F"
X       10.00000000      10.00000000      10.00000000       1.00000000       0.00000000       0.00000000       0.00000000       1.00000000       2.00000000       1.00000000       0.00000000       0.00676421       0.00000000       0.00000000      -0.00000000      -0.00000000      -0.00000000
X       13.64618406      10.00000000      10.00000000       0.76604444       0.00000000       0.64278761       0.00000000       1.00000000       2.00000000       1.00000000       1.39626340      -0.00676421      -0.00000000      -0.00000000      -0.00000000      -0.00000000      -0.00000000
2
Lattice="20.0 0.0 0.0 0.0 20.0 0.0 0.0 0.0 20.0" Properties=species:S:1:pos:R:3:quaternions:R:4:c_diameter\[1\]:R:1:c_diameter\[2\]:R:1:c_diameter\[3\]:R:1:angles:R:1:forces:R:3:torques:R:3 separation_distance=3.64618406285073 energy=-0.005956247362367363 pbc="F F F"
X       10.00000000      10.00000000      10.00000000       1.00000000       0.00000000       0.00000000       0.00000000       1.00000000       2.00000000       1.00000000       0.00000000       0.00676421       0.00000000       0.00000000      -0.00000000      -0.00000000      -0.00000000
X       13.64618406      10.00000000      10.00000000       0.64278761       0.00000000       0.76604444       0.00000000       1.00000000       2.00000000       1.00000000       1.74532925      -0.00676421      -0.00000000      -0.00000000      -0.00000000      -0.00000000      -0.00000000
2
Lattice="20.0 0.0 0.0 0.0 20.0 0.0 0.0 0.0 20.0" Properties=species:S:1:pos:R:3:quaternions:R:4:c_diameter\[1\]:R:1:c_diameter\[2\]:R:1:c_diameter\[3\]:R:1:angles:R:1:forces:R:3:torques:R:3 separation_distance=3.64618406285073 energy=-0.005956247362367363 pbc="F F F"
X       10.00000000      10.00000000      10.00000000       1.00000000       0.00000000       0.00000000       0.00000000       1.00000000       2.00000000       1.00000000       0.00000000       0.00676421       0.00000000       0.00000000      -0.00000000      -0.00000000      -0.00000000
X       13.64618406      10.00000000      10.00000000       0.50000000       0.00000000       0.86602540       0.00000000       1.00000000       2.00000000       1.00000000       2.09439510      -0.00676421      -0.00000000      -0.00000000      -0.00000000      -0.00000000      -0.00000000
2
Lattice="20.0 0.0 0.0 0.0 20.0 0.0 0.0 0.0 20.0" Properties=species:S:1:pos:R:3:quaternions:R:4:c_diameter\[1\]:R:1:c_diameter\[2\]:R:1:c_diameter\[3\]:R:1:angles:R:1:forces:R:3:torques:R:3 separation_distance=3.64618406285073 energy=-0.005956247362367363 pbc="F F F"
X       10.00000000      10.00000000      10.00000000       1.00000000       0.00000000       0.00000000       0.00000000       1.00000000       2.00000000       1.00000000       0.00000000       0.00676421       0.00000000       0.00000000      -0.00000000      -0.00000000      -0.00000000
X       13.64618406      10.00000000      10.00000000       0.34202014       0.00000000       0.93969262       0.00000000       1.00000000       2.00000000       1.00000000       2.44346095      -0.00676421      -0.00000000      -0.00000000      -0.00000000      -0.00000000      -0.00000000
2
Lattice="20.0 0.0 0.0 0.0 20.0 0.0 0.0 0.0 20.0" Properties=species:S:1:pos:R:3:quaternions:R:4:c_diameter\[1\]:R:1:c_diameter\[2\]:R:1:c_diameter\[3\]:R:1:angles:R:1:forces:R:3:torques:R:3 separation_distance=3.64618406285073 energy=-0.005956247362367363 pbc="F F F"
X       10.00000000      10.00000000      10.00000000       1.00000000       0.00000000       0.00000000       0.00000000       1.00000000       2.00000000       1.00000000       0.00000000       0.00676421       0.00000000       0.00000000      -0.00000000      -0.00000000      -0.00000000
X       13.64618406      10.00000000      10.00000000       0.17364818       0.00000000       0.98480775       0.00000000       1.00000000       2.00000000       1.00000000       2.79252680      -0.00676421      -0.00000000      -0.00000000      -0.00000000      -0.00000000      -0.00000000
2
Lattice="20.0 0.0 0.0 0.0 20.0 0.0 0.0 0.0 20.0" Properties=species:S:1:pos:R:3:quaternions:R:4:c_diameter\[1\]:R:1:c_diameter\[2\]:R:1:c_diameter\[3\]:R:1:angles:R:1:forces:R:3:torques:R:3 separation_distance=3.64618406285073 energy=-0.005956247362367363 pbc="F F F"
X       10.00000000      10.00000000      10.00000000       1.00000000       0.00000000       0.00000000       0.00000000       1.00000000       2.00000000       1.00000000       0.00000000       0.00676421       0.00000000       0.00000000      -0.00000000      -0.00000000      -0.00000000
X       13.64618406      10.00000000      10.00000000       0.00000000       0.00000000       1.00000000       0.00000000       1.00000000       2.00000000       1.00000000       3.14159265      -0.00676421      -0.00000000      -0.00000000      -0.00000000      -0.00000000      -0.00000000
2
Lattice="20.0 0.0 0.0 0.0 20.0 0.0 0.0 0.0 20.0" Properties=species:S:1:pos:R:3:quaternions:R:4:c_diameter\[1\]:R:1:c_diameter\[2\]:R:1:c_diameter\[3\]:R:1:angles:R:1:forces:R:3:torques:R:3 separation_distance=3.96324354657688 energy=-0.004240896709264013 pbc="F F F"
X       10.00000000      10.00000000      10.00000000       1.00000000       0.00000000       0.00000000       0.00000000       1.00000000       2.00000000       1.00000000       0.00000000       0.00429276       0.00000000       0.00000000      -0.00000000      -0.00000000      -0.00000000
X       13.96324355      10.00000000      10.00000000       1.00000000       0.00000000       0.00000000       0.00000000       1.00000000       2.00000000       1.00000000       0.00000000      -0.00429276      -0.00000000      -0.00000000      -0.00000000      -0.00000000      -0.00000000
2
Lattice="20.0 0.0 0.0 0.0 20.0 0.0 0.0 0.0 20.0" Properties=species:S:1:pos:R:3:quaternions:R:4:c_diameter\[1\]:R:1:c_diameter\[2\]:R:1:c_diameter\[3\]:R:1:angles:R:1:forces:R:3:torques:R:3 separation_distance=3.96324354657688 energy=-0.004240896709264013 pbc="F F F"
X       10.00000000      10.00000000      10.00000000       1.00000000       0.00000000       0.00000000       0.00000000       1.00000000       2.00000000       1.00000000       0.00000000       0.00429276       0.00000000       0.00000000      -0.00000000      -0.00000000      -0.00000000
X       13.96324355      10.00000000      10.00000000       0.98480775       0.00000000       0.17364818       0.00000000       1.00000000       2.00000000       1.00000000       0.34906585      -0.00429276      -0.00000000      -0.00000000      -0.00000000      -0.00000000      -0.00000000
2
Lattice="20.0 0.0 0.0 0.0 20.0 0.0 0.0 0.0 20.0" Properties=species:S:1:pos:R:3:quaternions:R:4:c_diameter\[1\]:R:1:c_diameter\[2\]:R:1:c_diameter\[3\]:R:1:angles:R:1:forces:R:3:torques:R:3 separation_distance=3.96324354657688 energy=-0.004240896709264013 pbc="F F F"
X       10.00000000      10.00000000      10.00000000       1.00000000       0.00000000       0.00000000       0.00000000       1.00000000       2.00000000       1.00000000       0.00000000       0.00429276       0.00000000       0.00000000      -0.00000000      -0.00000000      -0.00000000
X       13.96324355      10.00000000      10.00000000       0.93969262       0.00000000       0.34202014       0.00000000       1.00000000       2.00000000       1.00000000       0.69813170      -0.00429276      -0.00000000      -0.00000000      -0.00000000      -0.00000000      -0.00000000
2
Lattice="20.0 0.0 0.0 0.0 20.0 0.0 0.0 0.0 20.0" Properties=species:S:1:pos:R:3:quaternions:R:4:c_diameter\[1\]:R:1:c_diameter\[2\]:R:1:c_diameter\[3\]:R:1:angles:R:1:forces:R:3:torques:R:3 separation_distance=3.96324354657688 energy=-0.004240896709264013 pbc="F F F"
X       10.00000000      10.00000000      10.00000000       1.00000000       0.00000000       0.00000000       0.00000000       1.00000000       2.00000000       1.00000000       0.00000000       0.00429276       0.00000000       0.00000000      -0.00000000      -0.00000000      -0.00000000
X       13.96324355      10.00000000      10.00000000       0.86602540       0.00000000       0.50000000       0.00000000       1.00000000       2.00000000       1.00000000       1.04719755      -0.00429276      -0.00000000      -0.00000000      -0.00000000      -0.00000000      -0.00000000
2
Lattice="20.0 0.0 0.0 0.0 20.0 0.0 0.0 0.0 20.0" Properties=species:S:1:pos:R:3:quaternions:R:4:c_diameter\[1\]:R:1:c_diameter\[2\]:R:1:c_diameter\[3\]:R:1:angles:R:1:forces:R:3:torques:R:3 separation_distance=3.96324354657688 energy=-0.004240896709264013 pbc="F F F"
X       10.00000000      10.00000000      10.00000000       1.00000000       0.00000000       0.00000000       0.00000000       1.00000000       2.00000000       1.00000000       0.00000000       0.00429276       0.00000000       0.00000000      -0.00000000      -0.00000000      -0.00000000
X       13.96324355      10.00000000      10.00000000       0.76604444       0.00000000       0.64278761       0.00000000       1.00000000       2.00000000       1.00000000       1.39626340      -0.00429276      -0.00000000      -0.00000000      -0.00000000      -0.00000000      -0.00000000
2
Lattice="20.0 0.0 0.0 0.0 20.0 0.0 0.0 0.0 20.0" Properties=species:S:1:pos:R:3:quaternions:R:4:c_diameter\[1\]:R:1:c_diameter\[2\]:R:1:c_diameter\[3\]:R:1:angles:R:1:forces:R:3:torques:R:3 separation_distance=3.96324354657688 energy=-0.004240896709264013 pbc="F F F"
X       10.00000000      10.00000000      10.00000000       1.00000000       0.00000000       0.00000000       0.00000000       1.00000000       2.00000000       1.00000000       0.00000000       0.00429276       0.00000000       0.00000000      -0.00000000      -0.00000000      -0.00000000
X       13.96324355      10.00000000      10.00000000       0.64278761       0.00000000       0.76604444       0.00000000       1.00000000       2.00000000       1.00000000       1.74532925      -0.00429276      -0.00000000      -0.00000000      -0.00000000      -0.00000000      -0.00000000
2
Lattice="20.0 0.0 0.0 0.0 20.0 0.0 0.0 0.0 20.0" Properties=species:S:1:pos:R:3:quaternions:R:4:c_diameter\[1\]:R:1:c_diameter\[2\]:R:1:c_diameter\[3\]:R:1:angles:R:1:forces:R:3:torques:R:3 separation_distance=3.96324354657688 energy=-0.004240896709264013 pbc="F F F"
X       10.00000000      10.00000000      10.00000000       1.00000000       0.00000000       0.00000000       0.00000000       1.00000000       2.00000000       1.00000000       0.00000000       0.00429276       0.00000000       0.00000000      -0.00000000      -0.00000000      -0.00000000
X       13.96324355      10.00000000      10.00000000       0.50000000       0.00000000       0.86602540       0.00000000       1.00000000       2.00000000       1.00000000       2.09439510      -0.00429276      -0.00000000      -0.00000000      -0.00000000      -0.00000000      -0.00000000
2
Lattice="20.0 0.0 0.0 0.0 20.0 0.0 0.0 0.0 20.0" Properties=species:S:1:pos:R:3:quaternions:R:4:c_diameter\[1\]:R:1:c_diameter\[2\]:R:1:c_diameter\[3\]:R:1:angles:R:1:forces:R:3:torques:R:3 separation_distance=3.96324354657688 energy=-0.004240896709264013 pbc="F F F"
X       10.00000000      10.00000000      10.00000000       1.00000000       0.00000000       0.00000000       0.00000000       1.00000000       2.00000000       1.00000000       0.00000000       0.00429276       0.00000000       0.00000000      -0.00000000      -0.00000000      -0.00000000
X       13.96324355      10.00000000      10.00000000       0.34202014       0.00000000       0.93969262       0.00000000       1.00000000       2.00000000       1.00000000       2.44346095      -0.00429276      -0.00000000      -0.00000000      -0.00000000      -0.00000000      -0.00000000
2
Lattice="20.0 0.0 0.0 0.0 20.0 0.0 0.0 0.0 20.0" Properties=species:S:1:pos:R:3:quaternions:R:4:c_diameter\[1\]:R:1:c_diameter\[2\]:R:1:c_diameter\[3\]:R:1:angles:R:1:forces:R:3:torques:R:3 separation_distance=3.96324354657688 energy=-0.004240896709264013 pbc="F F F"
X       10.00000000      10.00000000      10.00000000       1.00000000       0.00000000       0.00000000       0.00000000       1.00000000       2.00000000       1.00000000       0.00000000       0.00429276       0.00000000       0.00000000      -0.00000000      -0.00000000      -0.00000000
X       13.96324355      10.00000000      10.00000000       0.17364818       0.00000000       0.98480775       0.00000000       1.00000000       2.00000000       1.00000000       2.79252680      -0.00429276      -0.00000000      -0.00000000      -0.00000000      -0.00000000      -0.00000000
2
Lattice="20.0 0.0 0.0 0.0 20.0 0.0 0.0 0.0 20.0" Properties=species:S:1:pos:R:3:quaternions:R:4:c_diameter\[1\]:R:1:c_diameter\[2\]:R:1:c_diameter\[3\]:R:1:angles:R:1:forces:R:3:torques:R:3 separation_distance=3.96324354657688 energy=-0.004240896709264013 pbc="F F F"
X       10.00000000      10.00000000      10.00000000       1.00000000       0.00000000       0.00000000       0.00000000       1.00000000       2.00000000       1.00000000       0.00000000       0.00429276       0.00000000       0.00000000      -0.00000000      -0.00000000      -0.00000000
X       13.96324355      10.00000000      10.00000000       0.00000000       0.00000000       1.00000000       0.00000000       1.00000000       2.00000000       1.00000000       3.14159265      -0.00429276      -0.00000000      -0.00000000      -0.00000000      -0.00000000      -0.00000000
2
Lattice="20.0 0.0 0.0 0.0 20.0 0.0 0.0 0.0 20.0" Properties=species:S:1:pos:R:3:quaternions:R:4:c_diameter\[1\]:R:1:c_diameter\[2\]:R:1:c_diameter\[3\]:R:1:angles:R:1:forces:R:3:torques:R:3 separation_distance=4.28030303030303 energy=-0.003126079843462978 pbc="F F F"
X       10.00000000      10.00000000      10.00000000       1.00000000       0.00000000       0.00000000       0.00000000       1.00000000       2.00000000       1.00000000       0.00000000       0.00286139       0.00000000       0.00000000      -0.00000000      -0.00000000      -0.00000000
X       14.28030303      10.00000000      10.00000000       1.00000000       0.00000000       0.00000000       0.00000000       1.00000000       2.00000000       1.00000000       0.00000000      -0.00286139      -0.00000000      -0.00000000      -0.00000000      -0.00000000      -0.00000000
2
Lattice="20.0 0.0 0.0 0.0 20.0 0.0 0.0 0.0 20.0" Properties=species:S:1:pos:R:3:quaternions:R:4:c_diameter\[1\]:R:1:c_diameter\[2\]:R:1:c_diameter\[3\]:R:1:angles:R:1:forces:R:3:torques:R:3 separation_distance=4.28030303030303 energy=-0.003126079843462978 pbc="F F F"
X       10.00000000      10.00000000      10.00000000       1.00000000       0.00000000       0.00000000       0.00000000       1.00000000       2.00000000       1.00000000       0.00000000       0.00286139       0.00000000       0.00000000      -0.00000000      -0.00000000      -0.00000000
X       14.28030303      10.00000000      10.00000000       0.98480775       0.00000000       0.17364818       0.00000000       1.00000000       2.00000000       1.00000000       0.34906585      -0.00286139      -0.00000000      -0.00000000      -0.00000000      -0.00000000      -0.00000000
2
Lattice="20.0 0.0 0.0 0.0 20.0 0.0 0.0 0.0 20.0" Properties=species:S:1:pos:R:3:quaternions:R:4:c_diameter\[1\]:R:1:c_diameter\[2\]:R:1:c_diameter\[3\]:R:1:angles:R:1:forces:R:3:torques:R:3 separation_distance=4.28030303030303 energy=-0.003126079843462978 pbc="F F F"
X       10.00000000      10.00000000      10.00000000       1.00000000       0.00000000       0.00000000       0.00000000       1.00000000       2.00000000       1.00000000       0.00000000       0.00286139       0.00000000       0.00000000      -0.00000000      -0.00000000      -0.00000000
X       14.28030303      10.00000000      10.00000000       0.93969262       0.00000000       0.34202014       0.00000000       1.00000000       2.00000000       1.00000000       0.69813170      -0.00286139      -0.00000000      -0.00000000      -0.00000000      -0.00000000      -0.00000000
2
Lattice="20.0 0.0 0.0 0.0 20.0 0.0 0.0 0.0 20.0" Properties=species:S:1:pos:R:3:quaternions:R:4:c_diameter\[1\]:R:1:c_diameter\[2\]:R:1:c_diameter\[3\]:R:1:angles:R:1:forces:R:3:torques:R:3 separation_distance=4.28030303030303 energy=-0.003126079843462978 pbc="F F F"
X       10.00000000      10.00000000      10.00000000       1.00000000       0.00000000       0.00000000       0.00000000       1.00000000       2.00000000       1.00000000       0.00000000       0.00286139       0.00000000       0.00000000      -0.00000000      -0.00000000      -0.00000000
X       14.28030303      10.00000000      10.00000000       0.86602540       0.00000000       0.50000000       0.00000000       1.00000000       2.00000000       1.00000000       1.04719755      -0.00286139      -0.00000000      -0.00000000      -0.00000000      -0.00000000      -0.00000000
2
Lattice="20.0 0.0 0.0 0.0 20.0 0.0 0.0 0.0 20.0" Properties=species:S:1:pos:R:3:quaternions:R:4:c_diameter\[1\]:R:1:c_diameter\[2\]:R:1:c_diameter\[3\]:R:1:angles:R:1:forces:R:3:torques:R:3 separation_distance=4.28030303030303 energy=-0.003126079843462978 pbc="F F F"
X       10.00000000      10.00000000      10.00000000       1.00000000       0.00000000       0.00000000       0.00000000       1.00000000       2.00000000       1.00000000       0.00000000       0.00286139       0.00000000       0.00000000      -0.00000000      -0.00000000      -0.00000000
X       14.28030303      10.00000000      10.00000000       0.76604444       0.00000000       0.64278761       0.00000000       1.00000000       2.00000000       1.00000000       1.39626340      -0.00286139      -0.00000000      -0.00000000      -0.00000000      -0.00000000      -0.00000000
2
Lattice="20.0 0.0 0.0 0.0 20.0 0.0 0.0 0.0 20.0" Properties=species:S:1:pos:R:3:quaternions:R:4:c_diameter\[1\]:R:1:c_diameter\[2\]:R:1:c_diameter\[3\]:R:1:angles:R:1:forces:R:3:torques:R:3 separation_distance=4.28030303030303 energy=-0.003126079843462978 pbc="F F F"
X       10.00000000      10.00000000      10.00000000       1.00000000       0.00000000       0.00000000       0.00000000       1.00000000       2.00000000       1.00000000       0.00000000       0.00286139       0.00000000       0.00000000      -0.00000000      -0.00000000      -0.00000000
X       14.28030303      10.00000000      10.00000000       0.64278761       0.00000000       0.76604444       0.00000000       1.00000000       2.00000000       1.00000000       1.74532925      -0.00286139      -0.00000000      -0.00000000      -0.00000000      -0.00000000      -0.00000000
2
Lattice="20.0 0.0 0.0 0.0 20.0 0.0 0.0 0.0 20.0" Properties=species:S:1:pos:R:3:quaternions:R:4:c_diameter\[1\]:R:1:c_diameter\[2\]:R:1:c_diameter\[3\]:R:1:angles:R:1:forces:R:3:torques:R:3 separation_distance=4.28030303030303 energy=-0.003126079843462978 pbc="F F F"
X       10.00000000      10.00000000      10.00000000       1.00000000       0.00000000       0.00000000       0.00000000       1.00000000       2.00000000       1.00000000       0.00000000       0.00286139       0.00000000       0.00000000      -0.00000000      -0.00000000      -0.00000000
X       14.28030303      10.00000000      10.00000000       0.50000000       0.00000000       0.86602540       0.00000000       1.00000000       2.00000000       1.00000000       2.09439510      -0.00286139      -0.00000000      -0.00000000      -0.00000000      -0.00000000      -0.00000000
2
Lattice="20.0 0.0 0.0 0.0 20.0 0.0 0.0 0.0 20.0" Properties=species:S:1:pos:R:3:quaternions:R:4:c_diameter\[1\]:R:1:c_diameter\[2\]:R:1:c_diameter\[3\]:R:1:angles:R:1:forces:R:3:torques:R:3 separation_distance=4.28030303030303 energy=-0.003126079843462978 pbc="F F F"
X       10.00000000      10.00000000      10.00000000       1.00000000       0.00000000       0.00000000       0.00000000       1.00000000       2.00000000       1.00000000       0.00000000       0.00286139       0.00000000       0.00000000      -0.00000000      -0.00000000      -0.00000000
X       14.28030303      10.00000000      10.00000000       0.34202014       0.00000000       0.93969262       0.00000000       1.00000000       2.00000000       1.00000000       2.44346095      -0.00286139      -0.00000000      -0.00000000      -0.00000000      -0.00000000      -0.00000000
2
Lattice="20.0 0.0 0.0 0.0 20.0 0.0 0.0 0.0 20.0" Properties=species:S:1:pos:R:3:quaternions:R:4:c_diameter\[1\]:R:1:c_diameter\[2\]:R:1:c_diameter\[3\]:R:1:angles:R:1:forces:R:3:torques:R:3 separation_distance=4.28030303030303 energy=-0.003126079843462978 pbc="F F F"
X       10.00000000      10.00000000      10.00000000       1.00000000       0.00000000       0.00000000       0.00000000       1.00000000       2.00000000       1.00000000       0.00000000       0.00286139       0.00000000       0.00000000      -0.00000000      -0.00000000      -0.00000000
X       14.28030303      10.00000000      10.00000000       0.17364818       0.00000000       0.98480775       0.00000000       1.00000000       2.00000000       1.00000000       2.79252680      -0.00286139      -0.00000000      -0.00000000      -0.00000000      -0.00000000      -0.00000000
2
Lattice="20.0 0.0 0.0 0.0 20.0 0.0 0.0 0.0 20.0" Properties=species:S:1:pos:R:3:quaternions:R:4:c_diameter\[1\]:R:1:c_diameter\[2\]:R:1:c_diameter\[3\]:R:1:angles:R:1:forces:R:3:torques:R:3 separation_distance=4.28030303030303 energy=-0.003126079843462978 pbc="F F F"
X       10.00000000      10.00000000      10.00000000       1.00000000       0.00000000       0.00000000       0.00000000       1.00000000       2.00000000       1.00000000       0.00000000       0.00286139       0.00000000       0.00000000      -0.00000000      -0.00000000      -0.00000000
X       14.28030303      10.00000000      10.00000000       0.00000000       0.00000000       1.00000000       0.00000000       1.00000000       2.00000000       1.00000000       3.14159265      -0.00286139      -0.00000000      -0.00000000      -0.00000000      -0.00000000      -0.00000000
