2
Lattice="20.0 0.0 0.0 0.0 20.0 0.0 0.0 0.0 20.0" Properties=species:S:1:pos:R:3:quaternions:R:4:c_diameter\[1\]:R:1:c_diameter\[2\]:R:1:c_diameter\[3\]:R:1:angles:R:1:forces:R:3:torques:R:3 separation_distance=1.7438271604938271 energy=-0.3655085684764524 pbc="F F F"
X       10.00000000      10.00000000      10.00000000       1.00000000       0.00000000       0.00000000       0.00000000       1.00000000       2.00000000       1.00000000       0.00000000       1.71122814       0.00000000       0.00000000      -0.00000000      -0.00000000      -0.00000000
X       11.74382716      10.00000000      10.00000000       1.00000000       0.00000000       0.00000000       0.00000000       1.00000000       2.00000000       1.00000000       0.00000000      -1.71122814      -0.00000000      -0.00000000      -0.00000000      -0.00000000      -0.00000000
2
Lattice="20.0 0.0 0.0 0.0 20.0 0.0 0.0 0.0 20.0" Properties=species:S:1:pos:R:3:quaternions:R:4:c_diameter\[1\]:R:1:c_diameter\[2\]:R:1:c_diameter\[3\]:R:1:angles:R:1:forces:R:3:torques:R:3 separation_distance=1.7438271604938271 energy=-0.49015935937040767 pbc="F F F"
X       10.00000000      10.00000000      10.00000000       1.00000000       0.00000000       0.00000000       0.00000000       1.00000000       2.00000000       1.00000000       0.00000000       2.41710496      -0.38446288       0.00000000      -0.00000000      -0.00000000      -0.11507987
X       11.74382716      10.00000000      10.00000000       0.98480775       0.00000000       0.00000000       0.17364818       1.00000000       2.00000000       1.00000000       0.34906585      -2.41710496       0.38446288      -0.00000000      -0.00000000      -0.00000000       0.79494505
2
Lattice="20.0 0.0 0.0 0.0 20.0 0.0 0.0 0.0 20.0" Properties=species:S:1:pos:R:3:quaternions:R:4:c_diameter\[1\]:R:1:c_diameter\[2\]:R:1:c_diameter\[3\]:R:1:angles:R:1:forces:R:3:torques:R:3 separation_distance=1.7438271604938271 energy=-1.0206324557377222 pbc="F F F"
X       10.00000000      10.00000000      10.00000000       1.00000000       0.00000000       0.00000000       0.00000000       1.00000000       2.00000000       1.00000000       0.00000000       5.38826264      -1.16817810       0.00000000      -0.00000000      -0.00000000      -0.45488354
X       11.74382716      10.00000000      10.00000000       0.93969262       0.00000000       0.00000000       0.34202014       1.00000000       2.00000000       1.00000000       0.69813170      -5.38826264       1.16817810      -0.00000000      -0.00000000      -0.00000000       2.49008061
2
Lattice="20.0 0.0 0.0 0.0 20.0 0.0 0.0 0.0 20.0" Properties=species:S:1:pos:R:3:quaternions:R:4:c_diameter\[1\]:R:1:c_diameter\[2\]:R:1:c_diameter\[3\]:R:1:angles:R:1:forces:R:3:torques:R:3 separation_distance=1.7438271604938271 energy=-2.017524344367087 pbc="F F F"
X       10.00000000      10.00000000      10.00000000       1.00000000       0.00000000       0.00000000       0.00000000       1.00000000       2.00000000       1.00000000       0.00000000      -0.61719698      -0.89145632       0.00000000      -0.00000000      -0.00000000       0.91578814
X       11.74382716      10.00000000      10.00000000       0.86602540       0.00000000       0.00000000       0.50000000       1.00000000       2.00000000       1.00000000       1.04719755       0.61719698       0.89145632      -0.00000000      -0.00000000      -0.00000000       0.04175396
2
Lattice="20.0 0.0 0.0 0.0 20.0 0.0 0.0 0.0 20.0" Properties=species:S:1:pos:R:3:quaternions:R:4:c_diameter\[1\]:R:1:c_diameter\[2\]:R:1:c_diameter\[3\]:R:1:angles:R:1:forces:R:3:torques:R:3 separation_distance=1.7438271604938271 energy=-2.0175243443670867 pbc="F F F"
X       10.00000000      10.00000000      10.00000000       1.00000000       0.00000000       0.00000000       0.00000000       1.00000000       2.00000000       1.00000000       0.00000000      -0.61719698       0.89145632       0.00000000      -0.00000000      -0.00000000      -0.91578814
X       11.74382716      10.00000000      10.00000000       0.50000000       0.00000000       0.00000000       0.86602540       1.00000000       2.00000000       1.00000000       2.09439510       0.61719698      -0.89145632      -0.00000000      -0.00000000      -0.00000000      -0.04175396
2
Lattice="20.0 0.0 0.0 0.0 20.0 0.0 0.0 0.0 20.0" Properties=species:S:1:pos:R:3:quaternions:R:4:c_diameter\[1\]:R:1:c_diameter\[2\]:R:1:c_diameter\[3\]:R:1:angles:R:1:forces:R:3:torques:R:3 separation_distance=1.7438271604938271 energy=-1.0206324557377227 pbc="F F F"
X       10.00000000      10.00000000      10.00000000       1.00000000       0.00000000       0.00000000       0.00000000       1.00000000       2.00000000       1.00000000       0.00000000       5.38826264       1.16817810       0.00000000      -0.00000000      -0.00000000       0.45488354
X       11.74382716      10.00000000      10.00000000       0.34202014       0.00000000       0.00000000       0.93969262       1.00000000       2.00000000       1.00000000       2.44346095      -5.38826264      -1.16817810      -0.00000000      -0.00000000      -0.00000000      -2.49008061
2
Lattice="20.0 0.0 0.0 0.0 20.0 0.0 0.0 0.0 20.0" Properties=species:S:1:pos:R:3:quaternions:R:4:c_diameter\[1\]:R:1:c_diameter\[2\]:R:1:c_diameter\[3\]:R:1:angles:R:1:forces:R:3:torques:R:3 separation_distance=1.7438271604938271 energy=-0.49015935937040755 pbc="F F F"
X       10.00000000      10.00000000      10.00000000       1.00000000       0.00000000       0.00000000       0.00000000       1.00000000       2.00000000       1.00000000       0.00000000       2.41710496       0.38446288       0.00000000      -0.00000000      -0.00000000       0.11507987
X       11.74382716      10.00000000      10.00000000       0.17364818       0.00000000       0.00000000       0.98480775       1.00000000       2.00000000       1.00000000       2.79252680      -2.41710496      -0.38446288      -0.00000000      -0.00000000      -0.00000000      -0.79494505
2
Lattice="20.0 0.0 0.0 0.0 20.0 0.0 0.0 0.0 20.0" Properties=species:S:1:pos:R:3:quaternions:R:4:c_diameter\[1\]:R:1:c_diameter\[2\]:R:1:c_diameter\[3\]:R:1:angles:R:1:forces:R:3:torques:R:3 separation_distance=1.7438271604938271 energy=-0.3655085684764524 pbc="F F F"
X       10.00000000      10.00000000      10.00000000       1.00000000       0.00000000       0.00000000       0.00000000       1.00000000       2.00000000       1.00000000       0.00000000       1.71122814       0.00000000       0.00000000      -0.00000000      -0.00000000      -0.00000000
X       11.74382716      10.00000000      10.00000000       0.00000000       0.00000000       0.00000000       1.00000000       1.00000000       2.00000000       1.00000000       3.14159265      -1.71122814      -0.00000000      -0.00000000      -0.00000000      -0.00000000      -0.00000000
2
Lattice="20.0 0.0 0.0 0.0 20.0 0.0 0.0 0.0 20.0" Properties=species:S:1:pos:R:3:quaternions:R:4:c_diameter\[1\]:R:1:c_diameter\[2\]:R:1:c_diameter\[3\]:R:1:angles:R:1:forces:R:3:torques:R:3 separation_distance=2.060886644219978 energy=-0.10667537480874172 pbc="F F F"
X       10.00000000      10.00000000      10.00000000       1.00000000       0.00000000       0.00000000       0.00000000       1.00000000       2.00000000       1.00000000       0.00000000       0.34137469       0.00000000       0.00000000      -0.00000000      -0.00000000      -0.00000000
X       12.06088664      10.00000000      10.00000000       1.00000000       0.00000000       0.00000000       0.00000000       1.00000000       2.00000000       1.00000000       0.00000000      -0.34137469      -0.00000000      -0.00000000      -0.00000000      -0.00000000      -0.00000000
2
Lattice="20.0 0.0 0.0 0.0 20.0 0.0 0.0 0.0 20.0" Properties=species:S:1:pos:R:3:quaternions:R:4:c_diameter\[1\]:R:1:c_diameter\[2\]:R:1:c_diameter\[3\]:R:1:angles:R:1:forces:R:3:torques:R:3 separation_distance=2.060886644219978 energy=-0.13311997627815172 pbc="F F F"
X       10.00000000      10.00000000      10.00000000       1.00000000       0.00000000       0.00000000       0.00000000       1.00000000       2.00000000       1.00000000       0.00000000       0.44971132      -0.07721480       0.00000000      -0.00000000      -0.00000000       0.00017043
X       12.06088664      10.00000000      10.00000000       0.98480775       0.00000000       0.00000000       0.17364818       1.00000000       2.00000000       1.00000000       0.34906585      -0.44971132       0.07721480      -0.00000000      -0.00000000      -0.00000000       0.15997567
2
Lattice="20.0 0.0 0.0 0.0 20.0 0.0 0.0 0.0 20.0" Properties=species:S:1:pos:R:3:quaternions:R:4:c_diameter\[1\]:R:1:c_diameter\[2\]:R:1:c_diameter\[3\]:R:1:angles:R:1:forces:R:3:torques:R:3 separation_distance=2.060886644219978 energy=-0.22964929505168552 pbc="F F F"
X       10.00000000      10.00000000      10.00000000       1.00000000       0.00000000       0.00000000       0.00000000       1.00000000       2.00000000       1.00000000       0.00000000       0.89565162      -0.19022540       0.00000000      -0.00000000      -0.00000000      -0.03402391
X       12.06088664      10.00000000      10.00000000       0.93969262       0.00000000       0.00000000       0.34202014       1.00000000       2.00000000       1.00000000       0.69813170      -0.89565162       0.19022540      -0.00000000      -0.00000000      -0.00000000       0.42838039
2
Lattice="20.0 0.0 0.0 0.0 20.0 0.0 0.0 0.0 20.0" Properties=species:S:1:pos:R:3:quaternions:R:4:c_diameter\[1\]:R:1:c_diameter\[2\]:R:1:c_diameter\[3\]:R:1:angles:R:1:forces:R:3:torques:R:3 separation_distance=2.060886644219978 energy=-0.45465343391889007 pbc="F F F"
X       10.00000000      10.00000000      10.00000000       1.00000000       0.00000000       0.00000000       0.00000000       1.00000000       2.00000000       1.00000000       0.00000000       2.11531230      -0.36498288       0.00000000      -0.00000000      -0.00000000      -0.12851035
X       12.06088664      10.00000000      10.00000000       0.86602540       0.00000000       0.00000000       0.50000000       1.00000000       2.00000000       1.00000000       1.04719755      -2.11531230       0.36498288      -0.00000000      -0.00000000      -0.00000000       0.87133087
2
Lattice="20.0 0.0 0.0 0.0 20.0 0.0 0.0 0.0 20.0" Properties=species:S:1:pos:R:3:quaternions:R:4:c_diameter\[1\]:R:1:c_diameter\[2\]:R:1:c_diameter\[3\]:R:1:angles:R:1:forces:R:3:torques:R:3 separation_distance=2.060886644219978 energy=-0.7745361845023214 pbc="F F F"
X       10.00000000      10.00000000      10.00000000       1.00000000       0.00000000       0.00000000       0.00000000       1.00000000       2.00000000       1.00000000       0.00000000       4.04507403      -0.28316079       0.00000000      -0.00000000      -0.00000000      -0.11797674
X       12.06088664      10.00000000      10.00000000       0.76604444       0.00000000       0.00000000       0.64278761       1.00000000       2.00000000       1.00000000       1.39626340      -4.04507403       0.28316079      -0.00000000      -0.00000000      -0.00000000       0.67445018
2
Lattice="20.0 0.0 0.0 0.0 20.0 0.0 0.0 0.0 20.0" Properties=species:S:1:pos:R:3:quaternions:R:4:c_diameter\[1\]:R:1:c_diameter\[2\]:R:1:c_diameter\[3\]:R:1:angles:R:1:forces:R:3:torques:R:3 separation_distance=2.060886644219978 energy=-0.7745361845023214 pbc="F F F"
X       10.00000000      10.00000000      10.00000000       1.00000000       0.00000000       0.00000000       0.00000000       1.00000000       2.00000000       1.00000000       0.00000000       4.04507403       0.28316079       0.00000000      -0.00000000      -0.00000000       0.11797674
X       12.06088664      10.00000000      10.00000000       0.64278761       0.00000000       0.00000000       0.76604444       1.00000000       2.00000000       1.00000000       1.74532925      -4.04507403      -0.28316079      -0.00000000      -0.00000000      -0.00000000      -0.67445018
2
Lattice="20.0 0.0 0.0 0.0 20.0 0.0 0.0 0.0 20.0" Properties=species:S:1:pos:R:3:quaternions:R:4:c_diameter\[1\]:R:1:c_diameter\[2\]:R:1:c_diameter\[3\]:R:1:angles:R:1:forces:R:3:torques:R:3 separation_distance=2.060886644219978 energy=-0.45465343391888957 pbc="F F F"
X       10.00000000      10.00000000      10.00000000       1.00000000       0.00000000       0.00000000       0.00000000       1.00000000       2.00000000       1.00000000       0.00000000       2.11531230       0.36498288       0.00000000      -0.00000000      -0.00000000       0.12851035
X       12.06088664      10.00000000      10.00000000       0.50000000       0.00000000       0.00000000       0.86602540       1.00000000       2.00000000       1.00000000       2.09439510      -2.11531230      -0.36498288      -0.00000000      -0.00000000      -0.00000000      -0.87133087
2
Lattice="20.0 0.0 0.0 0.0 20.0 0.0 0.0 0.0 20.0" Properties=species:S:1:pos:R:3:quaternions:R:4:c_diameter\[1\]:R:1:c_diameter\[2\]:R:1:c_diameter\[3\]:R:1:angles:R:1:forces:R:3:torques:R:3 separation_distance=2.060886644219978 energy=-0.22964929505168546 pbc="F F F"
X       10.00000000      10.00000000      10.00000000       1.00000000       0.00000000       0.00000000       0.00000000       1.00000000       2.00000000       1.00000000       0.00000000       0.89565162       0.19022540       0.00000000      -0.00000000      -0.00000000       0.03402391
X       12.06088664      10.00000000      10.00000000       0.34202014       0.00000000       0.00000000       0.93969262       1.00000000       2.00000000       1.00000000       2.44346095      -0.89565162      -0.19022540      -0.00000000      -0.00000000      -0.00000000      -0.42838039
2
Lattice="20.0 0.0 0.0 0.0 20.0 0.0 0.0 0.0 20.0" Properties=species:S:1:pos:R:3:quaternions:R:4:c_diameter\[1\]:R:1:c_diameter\[2\]:R:1:c_diameter\[3\]:R:1:angles:R:1:forces:R:3:torques:R:3 separation_distance=2.060886644219978 energy=-0.1331199762781517 pbc="F F F"
X       10.00000000      10.00000000      10.00000000       1.00000000       0.00000000       0.00000000       0.00000000       1.00000000       2.00000000       1.00000000       0.00000000       0.44971132       0.07721480       0.00000000      -0.00000000      -0.00000000      -0.00017043
X       12.06088664      10.00000000      10.00000000       0.17364818       0.00000000       0.00000000       0.98480775       1.00000000       2.00000000       1.00000000       2.79252680      -0.44971132      -0.07721480      -0.00000000      -0.00000000      -0.00000000      -0.15997567
2
Lattice="20.0 0.0 0.0 0.0 20.0 0.0 0.0 0.0 20.0" Properties=species:S:1:pos:R:3:quaternions:R:4:c_diameter\[1\]:R:1:c_diameter\[2\]:R:1:c_diameter\[3\]:R:1:angles:R:1:forces:R:3:torques:R:3 separation_distance=2.060886644219978 energy=-0.10667537480874172 pbc="F F F"
X       10.00000000      10.00000000      10.00000000       1.00000000       0.00000000       0.00000000       0.00000000       1.00000000       2.00000000       1.00000000       0.00000000       0.34137469       0.00000000       0.00000000      -0.00000000      -0.00000000      -0.00000000
X       12.06088664      10.00000000      10.00000000       0.00000000       0.00000000       0.00000000       1.00000000       1.00000000       2.00000000       1.00000000       3.14159265      -0.34137469      -0.00000000      -0.00000000      -0.00000000      -0.00000000      -0.00000000
2
Lattice="20.0 0.0 0.0 0.0 20.0 0.0 0.0 0.0 20.0" Properties=species:S:1:pos:R:3:quaternions:R:4:c_diameter\[1\]:R:1:c_diameter\[2\]:R:1:c_diameter\[3\]:R:1:angles:R:1:forces:R:3:torques:R:3 separation_distance=2.377946127946128 energy=-0.04483055869236793 pbc="F F F"
X       10.00000000      10.00000000      10.00000000       1.00000000       0.00000000       0.00000000       0.00000000       1.00000000       2.00000000       1.00000000       0.00000000       0.10528496       0.00000000       0.00000000      -0.00000000      -0.00000000      -0.00000000
X       12.37794613      10.00000000      10.00000000       1.00000000       0.00000000       0.00000000       0.00000000       1.00000000       2.00000000       1.00000000       0.00000000      -0.10528496      -0.00000000      -0.00000000      -0.00000000      -0.00000000      -0.00000000
2
Lattice="20.0 0.0 0.0 0.0 20.0 0.0 0.0 0.0 20.0" Properties=species:S:1:pos:R:3:quaternions:R:4:c_diameter\[1\]:R:1:c_diameter\[2\]:R:1:c_diameter\[3\]:R:1:angles:R:1:forces:R:3:torques:R:3 separation_distance=2.377946127946128 energy=-0.053546062917368 pbc="F F F"
X       10.00000000      10.00000000      10.00000000       1.00000000       0.00000000       0.00000000       0.00000000       1.00000000       2.00000000       1.00000000       0.00000000       0.13142919      -0.02451824       0.00000000      -0.00000000      -0.00000000       0.00783917
X       12.37794613      10.00000000      10.00000000       0.98480775       0.00000000       0.00000000       0.17364818       1.00000000       2.00000000       1.00000000       0.34906585      -0.13142919       0.02451824      -0.00000000      -0.00000000      -0.00000000       0.05054589
2
Lattice="20.0 0.0 0.0 0.0 20.0 0.0 0.0 0.0 20.0" Properties=species:S:1:pos:R:3:quaternions:R:4:c_diameter\[1\]:R:1:c_diameter\[2\]:R:1:c_diameter\[3\]:R:1:angles:R:1:forces:R:3:torques:R:3 separation_distance=2.377946127946128 energy=-0.08125739395425463 pbc="F F F"
X       10.00000000      10.00000000      10.00000000       1.00000000       0.00000000       0.00000000       0.00000000       1.00000000       2.00000000       1.00000000       0.00000000       0.22449733      -0.05031495       0.00000000      -0.00000000      -0.00000000       0.00786689
X       12.37794613      10.00000000      10.00000000       0.93969262       0.00000000       0.00000000       0.34202014       1.00000000       2.00000000       1.00000000       0.69813170      -0.22449733       0.05031495      -0.00000000      -0.00000000      -0.00000000       0.11199197
2
Lattice="20.0 0.0 0.0 0.0 20.0 0.0 0.0 0.0 20.0" Properties=species:S:1:pos:R:3:quaternions:R:4:c_diameter\[1\]:R:1:c_diameter\[2\]:R:1:c_diameter\[3\]:R:1:angles:R:1:forces:R:3:torques:R:3 separation_distance=2.377946127946128 energy=-0.13322470310942747 pbc="F F F"
X       10.00000000      10.00000000      10.00000000       1.00000000       0.00000000       0.00000000       0.00000000       1.00000000       2.00000000       1.00000000       0.00000000       0.42836359      -0.07480807       0.00000000      -0.00000000      -0.00000000      -0.00487903
X       12.37794613      10.00000000      10.00000000       0.86602540       0.00000000       0.00000000       0.50000000       1.00000000       2.00000000       1.00000000       1.04719755      -0.42836359       0.07480807      -0.00000000      -0.00000000      -0.00000000       0.18091042
2
Lattice="20.0 0.0 0.0 0.0 20.0 0.0 0.0 0.0 20.0" Properties=species:S:1:pos:R:3:quaternions:R:4:c_diameter\[1\]:R:1:c_diameter\[2\]:R:1:c_diameter\[3\]:R:1:angles:R:1:forces:R:3:torques:R:3 separation_distance=2.377946127946128 energy=-0.19389389629855303 pbc="F F F"
X       10.00000000      10.00000000      10.00000000       1.00000000       0.00000000       0.00000000       0.00000000       1.00000000       2.00000000       1.00000000       0.00000000       0.69859850      -0.04790025       0.00000000      -0.00000000      -0.00000000      -0.00931912
X       12.37794613      10.00000000      10.00000000       0.76604444       0.00000000       0.00000000       0.64278761       1.00000000       2.00000000       1.00000000       1.39626340      -0.69859850       0.04790025      -0.00000000      -0.00000000      -0.00000000       0.11938258
2
Lattice="20.0 0.0 0.0 0.0 20.0 0.0 0.0 0.0 20.0" Properties=species:S:1:pos:R:3:quaternions:R:4:c_diameter\[1\]:R:1:c_diameter\[2\]:R:1:c_diameter\[3\]:R:1:angles:R:1:forces:R:3:torques:R:3 separation_distance=2.377946127946128 energy=-0.19389389629855303 pbc="F F F"
X       10.00000000      10.00000000      10.00000000       1.00000000       0.00000000       0.00000000       0.00000000       1.00000000       2.00000000       1.00000000       0.00000000       0.69859850       0.04790025       0.00000000      -0.00000000      -0.00000000       0.00931912
X       12.37794613      10.00000000      10.00000000       0.64278761       0.00000000       0.00000000       0.76604444       1.00000000       2.00000000       1.00000000       1.74532925      -0.69859850      -0.04790025      -0.00000000      -0.00000000      -0.00000000      -0.11938258
2
Lattice="20.0 0.0 0.0 0.0 20.0 0.0 0.0 0.0 20.0" Properties=species:S:1:pos:R:3:quaternions:R:4:c_diameter\[1\]:R:1:c_diameter\[2\]:R:1:c_diameter\[3\]:R:1:angles:R:1:forces:R:3:torques:R:3 separation_distance=2.377946127946128 energy=-0.1332247031094275 pbc="F F F"
X       10.00000000      10.00000000      10.00000000       1.00000000       0.00000000       0.00000000       0.00000000       1.00000000       2.00000000       1.00000000       0.00000000       0.42836359       0.07480807       0.00000000      -0.00000000      -0.00000000       0.00487903
X       12.37794613      10.00000000      10.00000000       0.50000000       0.00000000       0.00000000       0.86602540       1.00000000       2.00000000       1.00000000       2.09439510      -0.42836359      -0.07480807      -0.00000000      -0.00000000      -0.00000000      -0.18091042
2
Lattice="20.0 0.0 0.0 0.0 20.0 0.0 0.0 0.0 20.0" Properties=species:S:1:pos:R:3:quaternions:R:4:c_diameter\[1\]:R:1:c_diameter\[2\]:R:1:c_diameter\[3\]:R:1:angles:R:1:forces:R:3:torques:R:3 separation_distance=2.377946127946128 energy=-0.08125739395425473 pbc="F F F"
X       10.00000000      10.00000000      10.00000000       1.00000000       0.00000000       0.00000000       0.00000000       1.00000000       2.00000000       1.00000000       0.00000000       0.22449733       0.05031495       0.00000000      -0.00000000      -0.00000000      -0.00786689
X       12.37794613      10.00000000      10.00000000       0.34202014       0.00000000       0.00000000       0.93969262       1.00000000       2.00000000       1.00000000       2.44346095      -0.22449733      -0.05031495      -0.00000000      -0.00000000      -0.00000000      -0.11199197
2
Lattice="20.0 0.0 0.0 0.0 20.0 0.0 0.0 0.0 20.0" Properties=species:S:1:pos:R:3:quaternions:R:4:c_diameter\[1\]:R:1:c_diameter\[2\]:R:1:c_diameter\[3\]:R:1:angles:R:1:forces:R:3:torques:R:3 separation_distance=2.377946127946128 energy=-0.05354606291736798 pbc="F F F"
X       10.00000000      10.00000000      10.00000000       1.00000000       0.00000000       0.00000000       0.00000000       1.00000000       2.00000000       1.00000000       0.00000000       0.13142919       0.02451824       0.00000000      -0.00000000      -0.00000000      -0.00783917
X       12.37794613      10.00000000      10.00000000       0.17364818       0.00000000       0.00000000       0.98480775       1.00000000       2.00000000       1.00000000       2.79252680      -0.13142919      -0.02451824      -0.00000000      -0.00000000      -0.00000000      -0.05054589
2
Lattice="20.0 0.0 0.0 0.0 20.0 0.0 0.0 0.0 20.0" Properties=species:S:1:pos:R:3:quaternions:R:4:c_diameter\[1\]:R:1:c_diameter\[2\]:R:1:c_diameter\[3\]:R:1:angles:R:1:forces:R:3:torques:R:3 separation_distance=2.377946127946128 energy=-0.04483055869236793 pbc="F F F"
X       10.00000000      10.00000000      10.00000000       1.00000000       0.00000000       0.00000000       0.00000000       1.00000000       2.00000000       1.00000000       0.00000000       0.10528496       0.00000000       0.00000000      -0.00000000      -0.00000000      -0.00000000
X       12.37794613      10.00000000      10.00000000       0.00000000       0.00000000       0.00000000       1.00000000       1.00000000       2.00000000       1.00000000       3.14159265      -0.10528496      -0.00000000      -0.00000000      -0.00000000      -0.00000000      -0.00000000
2
Lattice="20.0 0.0 0.0 0.0 20.0 0.0 0.0 0.0 20.0" Properties=species:S:1:pos:R:3:quaternions:R:4:c_diameter\[1\]:R:1:c_diameter\[2\]:R:1:c_diameter\[3\]:R:1:angles:R:1:forces:R:3:torques:R:3 separation_distance=2.6950056116722783 energy=-0.023205158005633587 pbc="F F F"
X       10.00000000      10.00000000      10.00000000       1.00000000       0.00000000       0.00000000       0.00000000       1.00000000       2.00000000       1.00000000       0.00000000       0.04282271       0.00000000       0.00000000      -0.00000000      -0.00000000      -0.00000000
X       12.69500561      10.00000000      10.00000000       1.00000000       0.00000000       0.00000000       0.00000000       1.00000000       2.00000000       1.00000000       0.00000000      -0.04282271      -0.00000000      -0.00000000      -0.00000000      -0.00000000      -0.00000000
2
Lattice="20.0 0.0 0.0 0.0 20.0 0.0 0.0 0.0 20.0" Properties=species:S:1:pos:R:3:quaternions:R:4:c_diameter\[1\]:R:1:c_diameter\[2\]:R:1:c_diameter\[3\]:R:1:angles:R:1:forces:R:3:torques:R:3 separation_distance=2.6950056116722783 energy=-0.026978576496164253 pbc="F F F"
X       10.00000000      10.00000000      10.00000000       1.00000000       0.00000000       0.00000000       0.00000000       1.00000000       2.00000000       1.00000000       0.00000000       0.05162218      -0.01024536       0.00000000      -0.00000000      -0.00000000       0.00633836
X       12.69500561      10.00000000      10.00000000       0.98480775       0.00000000       0.00000000       0.17364818       1.00000000       2.00000000       1.00000000       0.34906585      -0.05162218       0.01024536      -0.00000000      -0.00000000      -0.00000000       0.02123454
2
Lattice="20.0 0.0 0.0 0.0 20.0 0.0 0.0 0.0 20.0" Properties=species:S:1:pos:R:3:quaternions:R:4:c_diameter\[1\]:R:1:c_diameter\[2\]:R:1:c_diameter\[3\]:R:1:angles:R:1:forces:R:3:torques:R:3 separation_distance=2.6950056116722783 energy=-0.037870609049085055 pbc="F F F"
X       10.00000000      10.00000000      10.00000000       1.00000000       0.00000000       0.00000000       0.00000000       1.00000000       2.00000000       1.00000000       0.00000000       0.07985372      -0.01870232       0.00000000      -0.00000000      -0.00000000       0.00923603
X       12.69500561      10.00000000      10.00000000       0.93969262       0.00000000       0.00000000       0.34202014       1.00000000       2.00000000       1.00000000       0.69813170      -0.07985372       0.01870232      -0.00000000      -0.00000000      -0.00000000       0.04117972
2
Lattice="20.0 0.0 0.0 0.0 20.0 0.0 0.0 0.0 20.0" Properties=species:S:1:pos:R:3:quaternions:R:4:c_diameter\[1\]:R:1:c_diameter\[2\]:R:1:c_diameter\[3\]:R:1:angles:R:1:forces:R:3:torques:R:3 separation_distance=2.6950056116722783 energy=-0.05544562767767395 pbc="F F F"
X       10.00000000      10.00000000      10.00000000       1.00000000       0.00000000       0.00000000       0.00000000       1.00000000       2.00000000       1.00000000       0.00000000       0.13242873      -0.02352453       0.00000000      -0.00000000      -0.00000000       0.00614063
X       12.69500561      10.00000000      10.00000000       0.86602540       0.00000000       0.00000000       0.50000000       1.00000000       2.00000000       1.00000000       1.04719755      -0.13242873       0.02352453      -0.00000000      -0.00000000      -0.00000000       0.05674795
2
Lattice="20.0 0.0 0.0 0.0 20.0 0.0 0.0 0.0 20.0" Properties=species:S:1:pos:R:3:quaternions:R:4:c_diameter\[1\]:R:1:c_diameter\[2\]:R:1:c_diameter\[3\]:R:1:angles:R:1:forces:R:3:torques:R:3 separation_distance=2.6950056116722783 energy=-0.07330039069682896 pbc="F F F"
X       10.00000000      10.00000000      10.00000000       1.00000000       0.00000000       0.00000000       0.00000000       1.00000000       2.00000000       1.00000000       0.00000000       0.19228696      -0.01314991       0.00000000      -0.00000000      -0.00000000       0.00125380
X       12.69500561      10.00000000      10.00000000       0.76604444       0.00000000       0.00000000       0.64278761       1.00000000       2.00000000       1.00000000       1.39626340      -0.19228696       0.01314991      -0.00000000      -0.00000000      -0.00000000       0.03333260
2
Lattice="20.0 0.0 0.0 0.0 20.0 0.0 0.0 0.0 20.0" Properties=species:S:1:pos:R:3:quaternions:R:4:c_diameter\[1\]:R:1:c_diameter\[2\]:R:1:c_diameter\[3\]:R:1:angles:R:1:forces:R:3:torques:R:3 separation_distance=2.6950056116722783 energy=-0.07330039069682896 pbc="F F F"
X       10.00000000      10.00000000      10.00000000       1.00000000       0.00000000       0.00000000       0.00000000       1.00000000       2.00000000       1.00000000       0.00000000       0.19228696       0.01314991       0.00000000      -0.00000000      -0.00000000      -0.00125380
X       12.69500561      10.00000000      10.00000000       0.64278761       0.00000000       0.00000000       0.76604444       1.00000000       2.00000000       1.00000000       1.74532925      -0.19228696      -0.01314991      -0.00000000      -0.00000000      -0.00000000      -0.03333260
2
Lattice="20.0 0.0 0.0 0.0 20.0 0.0 0.0 0.0 20.0" Properties=species:S:1:pos:R:3:quaternions:R:4:c_diameter\[1\]:R:1:c_diameter\[2\]:R:1:c_diameter\[3\]:R:1:angles:R:1:forces:R:3:torques:R:3 separation_distance=2.6950056116722783 energy=-0.05544562767767396 pbc="F F F"
X       10.00000000      10.00000000      10.00000000       1.00000000       0.00000000       0.00000000       0.00000000       1.00000000       2.00000000       1.00000000       0.00000000       0.13242873       0.02352453       0.00000000      -0.00000000      -0.00000000      -0.00614063
X       12.69500561      10.00000000      10.00000000       0.50000000       0.00000000       0.00000000       0.86602540       1.00000000       2.00000000       1.00000000       2.09439510      -0.13242873      -0.02352453      -0.00000000      -0.00000000      -0.00000000      -0.05674795
2
Lattice="20.0 0.0 0.0 0.0 20.0 0.0 0.0 0.0 20.0" Properties=species:S:1:pos:R:3:quaternions:R:4:c_diameter\[1\]:R:1:c_diameter\[2\]:R:1:c_diameter\[3\]:R:1:angles:R:1:forces:R:3:torques:R:3 separation_distance=2.6950056116722783 energy=-0.037870609049085076 pbc="F F F"
X       10.00000000      10.00000000      10.00000000       1.00000000       0.00000000       0.00000000       0.00000000       1.00000000       2.00000000       1.00000000       0.00000000       0.07985372       0.01870232       0.00000000      -0.00000000      -0.00000000      -0.00923603
X       12.69500561      10.00000000      10.00000000       0.34202014       0.00000000       0.00000000       0.93969262       1.00000000       2.00000000       1.00000000       2.44346095      -0.07985372      -0.01870232      -0.00000000      -0.00000000      -0.00000000      -0.04117972
2
Lattice="20.0 0.0 0.0 0.0 20.0 0.0 0.0 0.0 20.0" Properties=species:S:1:pos:R:3:quaternions:R:4:c_diameter\[1\]:R:1:c_diameter\[2\]:R:1:c_diameter\[3\]:R:1:angles:R:1:forces:R:3:torques:R:3 separation_distance=2.6950056116722783 energy=-0.026978576496164253 pbc="F F F"
X       10.00000000      10.00000000      10.00000000       1.00000000       0.00000000       0.00000000       0.00000000       1.00000000       2.00000000       1.00000000       0.00000000       0.05162218       0.01024536       0.00000000      -0.00000000      -0.00000000      -0.00633836
X       12.69500561      10.00000000      10.00000000       0.17364818       0.00000000       0.00000000       0.98480775       1.00000000       2.00000000       1.00000000       2.79252680      -0.05162218      -0.01024536      -0.00000000      -0.00000000      -0.00000000      -0.02123454
2
Lattice="20.0 0.0 0.0 0.0 20.0 0.0 0.0 0.0 20.0" Properties=species:S:1:pos:R:3:quaternions:R:4:c_diameter\[1\]:R:1:c_diameter\[2\]:R:1:c_diameter\[3\]:R:1:angles:R:1:forces:R:3:torques:R:3 separation_distance=2.6950056116722783 energy=-0.023205158005633587 pbc="F F F"
X       10.00000000      10.00000000      10.00000000       1.00000000       0.00000000       0.00000000       0.00000000       1.00000000       2.00000000       1.00000000       0.00000000       0.04282271       0.00000000       0.00000000      -0.00000000      -0.00000000      -0.00000000
X       12.69500561      10.00000000      10.00000000       0.00000000       0.00000000       0.00000000       1.00000000       1.00000000       2.00000000       1.00000000       3.14159265      -0.04282271      -0.00000000      -0.00000000      -0.00000000      -0.00000000      -0.00000000
2
Lattice="20.0 0.0 0.0 0.0 20.0 0.0 0.0 0.0 20.0" Properties=species:S:1:pos:R:3:quaternions:R:4:c_diameter\[1\]:R:1:c_diameter\[2\]:R:1:c_diameter\[3\]:R:1:angles:R:1:forces:R:3:torques:R:3 separation_distance=3.012065095398429 energy=-0.013654011460350834 pbc="F F F"
X       10.00000000      10.00000000      10.00000000       1.00000000       0.00000000       0.00000000       0.00000000       1.00000000       2.00000000       1.00000000       0.00000000       0.02077572       0.00000000       0.00000000      -0.00000000      -0.00000000      -0.00000000
X       13.01206510      10.00000000      10.00000000       1.00000000       0.00000000       0.00000000       0.00000000       1.00000000       2.00000000       1.00000000       0.00000000      -0.02077572      -0.00000000      -0.00000000      -0.00000000      -0.00000000      -0.00000000
2
Lattice="20.0 0.0 0.0 0.0 20.0 0.0 0.0 0.0 20.0" Properties=species:S:1:pos:R:3:quaternions:R:4:c_diameter\[1\]:R:1:c_diameter\[2\]:R:1:c_diameter\[3\]:R:1:angles:R:1:forces:R:3:torques:R:3 separation_distance=3.012065095398429 energy=-0.015592975630717628 pbc="F F F"
X       10.00000000      10.00000000      10.00000000       1.00000000       0.00000000       0.00000000       0.00000000       1.00000000       2.00000000       1.00000000       0.00000000       0.02445290      -0.00507468       0.00000000      -0.00000000      -0.00000000       0.00457192
X       13.01206510      10.00000000      10.00000000       0.98480775       0.00000000       0.00000000       0.17364818       1.00000000       2.00000000       1.00000000       0.34906585      -0.02445290       0.00507468      -0.00000000      -0.00000000      -0.00000000       0.01066565
2
Lattice="20.0 0.0 0.0 0.0 20.0 0.0 0.0 0.0 20.0" Properties=species:S:1:pos:R:3:quaternions:R:4:c_diameter\[1\]:R:1:c_diameter\[2\]:R:1:c_diameter\[3\]:R:1:angles:R:1:forces:R:3:torques:R:3 separation_distance=3.012065095398429 energy=-0.020799914565417115 pbc="F F F"
X       10.00000000      10.00000000      10.00000000       1.00000000       0.00000000       0.00000000       0.00000000       1.00000000       2.00000000       1.00000000       0.00000000       0.03536923      -0.00855714       0.00000000      -0.00000000      -0.00000000       0.00705063
X       13.01206510      10.00000000      10.00000000       0.93969262       0.00000000       0.00000000       0.34202014       1.00000000       2.00000000       1.00000000       0.69813170      -0.03536923       0.00855714      -0.00000000      -0.00000000      -0.00000000       0.01871761
2
Lattice="20.0 0.0 0.0 0.0 20.0 0.0 0.0 0.0 20.0" Properties=species:S:1:pos:R:3:quaternions:R:4:c_diameter\[1\]:R:1:c_diameter\[2\]:R:1:c_diameter\[3\]:R:1:angles:R:1:forces:R:3:torques:R:3 separation_distance=3.012065095398429 energy=-0.028323849937780754 pbc="F F F"
X       10.00000000      10.00000000      10.00000000       1.00000000       0.00000000       0.00000000       0.00000000       1.00000000       2.00000000       1.00000000       0.00000000       0.05343558      -0.00961123       0.00000000      -0.00000000      -0.00000000       0.00577128
X       13.01206510      10.00000000      10.00000000       0.86602540       0.00000000       0.00000000       0.50000000       1.00000000       2.00000000       1.00000000       1.04719755      -0.05343558       0.00961123      -0.00000000      -0.00000000      -0.00000000       0.02300932
2
Lattice="20.0 0.0 0.0 0.0 20.0 0.0 0.0 0.0 20.0" Properties=species:S:1:pos:R:3:quaternions:R:4:c_diameter\[1\]:R:1:c_diameter\[2\]:R:1:c_diameter\[3\]:R:1:angles:R:1:forces:R:3:torques:R:3 separation_distance=3.012065095398429 energy=-0.03525569705306367 pbc="F F F"
X       10.00000000      10.00000000      10.00000000       1.00000000       0.00000000       0.00000000       0.00000000       1.00000000       2.00000000       1.00000000       0.00000000       0.07191426      -0.00490284       0.00000000      -0.00000000      -0.00000000       0.00202730
X       13.01206510      10.00000000      10.00000000       0.76604444       0.00000000       0.00000000       0.64278761       1.00000000       2.00000000       1.00000000       1.39626340      -0.07191426       0.00490284      -0.00000000      -0.00000000      -0.00000000       0.01248135
2
Lattice="20.0 0.0 0.0 0.0 20.0 0.0 0.0 0.0 20.0" Properties=species:S:1:pos:R:3:quaternions:R:4:c_diameter\[1\]:R:1:c_diameter\[2\]:R:1:c_diameter\[3\]:R:1:angles:R:1:forces:R:3:torques:R:3 separation_distance=3.012065095398429 energy=-0.03525569705306367 pbc="F F F"
X       10.00000000      10.00000000      10.00000000       1.00000000       0.00000000       0.00000000       0.00000000       1.00000000       2.00000000       1.00000000       0.00000000       0.07191426       0.00490284       0.00000000      -0.00000000      -0.00000000      -0.00202730
X       13.01206510      10.00000000      10.00000000       0.64278761       0.00000000       0.00000000       0.76604444       1.00000000       2.00000000       1.00000000       1.74532925      -0.07191426      -0.00490284      -0.00000000      -0.00000000      -0.00000000      -0.01248135
2
Lattice="20.0 0.0 0.0 0.0 20.0 0.0 0.0 0.0 20.0" Properties=species:S:1:pos:R:3:quaternions:R:4:c_diameter\[1\]:R:1:c_diameter\[2\]:R:1:c_diameter\[3\]:R:1:angles:R:1:forces:R:3:torques:R:3 separation_distance=3.012065095398429 energy=-0.02832384993778076 pbc="F F F"
X       10.00000000      10.00000000      10.00000000       1.00000000       0.00000000       0.00000000       0.00000000       1.00000000       2.00000000       1.00000000       0.00000000       0.05343558       0.00961123       0.00000000      -0.00000000      -0.00000000      -0.00577128
X       13.01206510      10.00000000      10.00000000       0.50000000       0.00000000       0.00000000       0.86602540       1.00000000       2.00000000       1.00000000       2.09439510      -0.05343558      -0.00961123      -0.00000000      -0.00000000      -0.00000000      -0.02300932
2
Lattice="20.0 0.0 0.0 0.0 20.0 0.0 0.0 0.0 20.0" Properties=species:S:1:pos:R:3:quaternions:R:4:c_diameter\[1\]:R:1:c_diameter\[2\]:R:1:c_diameter\[3\]:R:1:angles:R:1:forces:R:3:torques:R:3 separation_distance=3.012065095398429 energy=-0.020799914565417105 pbc="F F F"
X       10.00000000      10.00000000      10.00000000       1.00000000       0.00000000       0.00000000       0.00000000       1.00000000       2.00000000       1.00000000       0.00000000       0.03536923       0.00855714       0.00000000      -0.00000000      -0.00000000      -0.00705063
X       13.01206510      10.00000000      10.00000000       0.34202014       0.00000000       0.00000000       0.93969262       1.00000000       2.00000000       1.00000000       2.44346095      -0.03536923      -0.00855714      -0.00000000      -0.00000000      -0.00000000      -0.01871761
2
Lattice="20.0 0.0 0.0 0.0 20.0 0.0 0.0 0.0 20.0" Properties=species:S:1:pos:R:3:quaternions:R:4:c_diameter\[1\]:R:1:c_diameter\[2\]:R:1:c_diameter\[3\]:R:1:angles:R:1:forces:R:3:torques:R:3 separation_distance=3.012065095398429 energy=-0.015592975630717624 pbc="F F F"
X       10.00000000      10.00000000      10.00000000       1.00000000       0.00000000       0.00000000       0.00000000       1.00000000       2.00000000       1.00000000       0.00000000       0.02445290       0.00507468       0.00000000      -0.00000000      -0.00000000      -0.00457192
X       13.01206510      10.00000000      10.00000000       0.17364818       0.00000000       0.00000000       0.98480775       1.00000000       2.00000000       1.00000000       2.79252680      -0.02445290      -0.00507468      -0.00000000      -0.00000000      -0.00000000      -0.01066565
2
Lattice="20.0 0.0 0.0 0.0 20.0 0.0 0.0 0.0 20.0" Properties=species:S:1:pos:R:3:quaternions:R:4:c_diameter\[1\]:R:1:c_diameter\[2\]:R:1:c_diameter\[3\]:R:1:angles:R:1:forces:R:3:torques:R:3 separation_distance=3.012065095398429 energy=-0.013654011460350834 pbc="F F F"
X       10.00000000      10.00000000      10.00000000       1.00000000       0.00000000       0.00000000       0.00000000       1.00000000       2.00000000       1.00000000       0.00000000       0.02077572       0.00000000       0.00000000      -0.00000000      -0.00000000      -0.00000000
X       13.01206510      10.00000000      10.00000000       0.00000000       0.00000000       0.00000000       1.00000000       1.00000000       2.00000000       1.00000000       3.14159265      -0.02077572      -0.00000000      -0.00000000      -0.00000000      -0.00000000      -0.00000000
2
Lattice="20.0 0.0 0.0 0.0 20.0 0.0 0.0 0.0 20.0" Properties=species:S:1:pos:R:3:quaternions:R:4:c_diameter\[1\]:R:1:c_diameter\[2\]:R:1:c_diameter\[3\]:R:1:angles:R:1:forces:R:3:torques:R:3 separation_distance=3.3291245791245796 energy=-0.008749704173509077 pbc="F F F"
X       10.00000000      10.00000000      10.00000000       1.00000000       0.00000000       0.00000000       0.00000000       1.00000000       2.00000000       1.00000000       0.00000000       0.01135906       0.00000000       0.00000000      -0.00000000      -0.00000000      -0.00000000
X       13.32912458      10.00000000      10.00000000       1.00000000       0.00000000       0.00000000       0.00000000       1.00000000       2.00000000       1.00000000       0.00000000      -0.01135906      -0.00000000      -0.00000000      -0.00000000      -0.00000000      -0.00000000
2
Lattice="20.0 0.0 0.0 0.0 20.0 0.0 0.0 0.0 20.0" Properties=species:S:1:pos:R:3:quaternions:R:4:c_diameter\[1\]:R:1:c_diameter\[2\]:R:1:c_diameter\[3\]:R:1:angles:R:1:forces:R:3:torques:R:3 separation_distance=3.3291245791245796 energy=-0.00986762895441036 pbc="F F F"
X       10.00000000      10.00000000      10.00000000       1.00000000       0.00000000       0.00000000       0.00000000       1.00000000       2.00000000       1.00000000       0.00000000       0.01314123      -0.00281594       0.00000000      -0.00000000      -0.00000000       0.00329468
X       13.32912458      10.00000000      10.00000000       0.98480775       0.00000000       0.00000000       0.17364818       1.00000000       2.00000000       1.00000000       0.34906585      -0.01314123       0.00281594      -0.00000000      -0.00000000      -0.00000000       0.00603983
2
Lattice="20.0 0.0 0.0 0.0 20.0 0.0 0.0 0.0 20.0" Properties=species:S:1:pos:R:3:quaternions:R:4:c_diameter\[1\]:R:1:c_diameter\[2\]:R:1:c_diameter\[3\]:R:1:angles:R:1:forces:R:3:torques:R:3 separation_distance=3.3291245791245796 energy=-0.012704134777382378 pbc="F F F"
X       10.00000000      10.00000000      10.00000000       1.00000000       0.00000000       0.00000000       0.00000000       1.00000000       2.00000000       1.00000000       0.00000000       0.01811791      -0.00448698       0.00000000      -0.00000000      -0.00000000       0.00513911
X       13.32912458      10.00000000      10.00000000       0.93969262       0.00000000       0.00000000       0.34202014       1.00000000       2.00000000       1.00000000       0.69813170      -0.01811791       0.00448698      -0.00000000      -0.00000000      -0.00000000       0.00979319
2
Lattice="20.0 0.0 0.0 0.0 20.0 0.0 0.0 0.0 20.0" Properties=species:S:1:pos:R:3:quaternions:R:4:c_diameter\[1\]:R:1:c_diameter\[2\]:R:1:c_diameter\[3\]:R:1:angles:R:1:forces:R:3:torques:R:3 separation_distance=3.3291245791245796 energy=-0.016462904805158475 pbc="F F F"
X       10.00000000      10.00000000      10.00000000       1.00000000       0.00000000       0.00000000       0.00000000       1.00000000       2.00000000       1.00000000       0.00000000       0.02563605      -0.00464775       0.00000000      -0.00000000      -0.00000000       0.00439059
X       13.32912458      10.00000000      10.00000000       0.86602540       0.00000000       0.00000000       0.50000000       1.00000000       2.00000000       1.00000000       1.04719755      -0.02563605       0.00464775      -0.00000000      -0.00000000      -0.00000000       0.01102064
2
Lattice="20.0 0.0 0.0 0.0 20.0 0.0 0.0 0.0 20.0" Properties=species:S:1:pos:R:3:quaternions:R:4:c_diameter\[1\]:R:1:c_diameter\[2\]:R:1:c_diameter\[3\]:R:1:angles:R:1:forces:R:3:torques:R:3 separation_distance=3.3291245791245796 energy=-0.019678392785476496 pbc="F F F"
X       10.00000000      10.00000000      10.00000000       1.00000000       0.00000000       0.00000000       0.00000000       1.00000000       2.00000000       1.00000000       0.00000000       0.03273570      -0.00222108       0.00000000      -0.00000000      -0.00000000       0.00166136
X       13.32912458      10.00000000      10.00000000       0.76604444       0.00000000       0.00000000       0.64278761       1.00000000       2.00000000       1.00000000       1.39626340      -0.03273570       0.00222108      -0.00000000      -0.00000000      -0.00000000       0.00563747
2
Lattice="20.0 0.0 0.0 0.0 20.0 0.0 0.0 0.0 20.0" Properties=species:S:1:pos:R:3:quaternions:R:4:c_diameter\[1\]:R:1:c_diameter\[2\]:R:1:c_diameter\[3\]:R:1:angles:R:1:forces:R:3:torques:R:3 separation_distance=3.3291245791245796 energy=-0.019678392785476496 pbc="F F F"
X       10.00000000      10.00000000      10.00000000       1.00000000       0.00000000       0.00000000       0.00000000       1.00000000       2.00000000       1.00000000       0.00000000       0.03273570       0.00222108       0.00000000      -0.00000000      -0.00000000      -0.00166136
X       13.32912458      10.00000000      10.00000000       0.64278761       0.00000000       0.00000000       0.76604444       1.00000000       2.00000000       1.00000000       1.74532925      -0.03273570      -0.00222108      -0.00000000      -0.00000000      -0.00000000      -0.00563747
2
Lattice="20.0 0.0 0.0 0.0 20.0 0.0 0.0 0.0 20.0" Properties=species:S:1:pos:R:3:quaternions:R:4:c_diameter\[1\]:R:1:c_diameter\[2\]:R:1:c_diameter\[3\]:R:1:angles:R:1:forces:R:3:torques:R:3 separation_distance=3.3291245791245796 energy=-0.016462904805158475 pbc="F F F"
X       10.00000000      10.00000000      10.00000000       1.00000000       0.00000000       0.00000000       0.00000000       1.00000000       2.00000000       1.00000000       0.00000000       0.02563605       0.00464775       0.00000000      -0.00000000      -0.00000000      -0.00439059
X       13.32912458      10.00000000      10.00000000       0.50000000       0.00000000       0.00000000       0.86602540       1.00000000       2.00000000       1.00000000       2.09439510      -0.02563605      -0.00464775      -0.00000000      -0.00000000      -0.00000000      -0.01102064
2
Lattice="20.0 0.0 0.0 0.0 20.0 0.0 0.0 0.0 20.0" Properties=species:S:1:pos:R:3:quaternions:R:4:c_diameter\[1\]:R:1:c_diameter\[2\]:R:1:c_diameter\[3\]:R:1:angles:R:1:forces:R:3:torques:R:3 separation_distance=3.3291245791245796 energy=-0.01270413477738239 pbc="F F F"
X       10.00000000      10.00000000      10.00000000       1.00000000       0.00000000       0.00000000       0.00000000       1.00000000       2.00000000       1.00000000       0.00000000       0.01811791       0.00448698       0.00000000      -0.00000000      -0.00000000      -0.00513911
X       13.32912458      10.00000000      10.00000000       0.34202014       0.00000000       0.00000000       0.93969262       1.00000000       2.00000000       1.00000000       2.44346095      -0.01811791      -0.00448698      -0.00000000      -0.00000000      -0.00000000      -0.00979319
2
Lattice="20.0 0.0 0.0 0.0 20.0 0.0 0.0 0.0 20.0" Properties=species:S:1:pos:R:3:quaternions:R:4:c_diameter\[1\]:R:1:c_diameter\[2\]:R:1:c_diameter\[3\]:R:1:angles:R:1:forces:R:3:torques:R:3 separation_distance=3.3291245791245796 energy=-0.009867628954410358 pbc="F F F"
X       10.00000000      10.00000000      10.00000000       1.00000000       0.00000000       0.00000000       0.00000000       1.00000000       2.00000000       1.00000000       0.00000000       0.01314123       0.00281594       0.00000000      -0.00000000      -0.00000000      -0.00329468
X       13.32912458      10.00000000      10.00000000       0.17364818       0.00000000       0.00000000       0.98480775       1.00000000       2.00000000       1.00000000       2.79252680      -0.01314123      -0.00281594      -0.00000000      -0.00000000      -0.00000000      -0.00603983
2
Lattice="20.0 0.0 0.0 0.0 20.0 0.0 0.0 0.0 20.0" Properties=species:S:1:pos:R:3:quaternions:R:4:c_diameter\[1\]:R:1:c_diameter\[2\]:R:1:c_diameter\[3\]:R:1:angles:R:1:forces:R:3:torques:R:3 separation_distance=3.3291245791245796 energy=-0.008749704173509077 pbc="F F F"
X       10.00000000      10.00000000      10.00000000       1.00000000       0.00000000       0.00000000       0.00000000       1.00000000       2.00000000       1.00000000       0.00000000       0.01135906       0.00000000       0.00000000      -0.00000000      -0.00000000      -0.00000000
X       13.32912458      10.00000000      10.00000000       0.00000000       0.00000000       0.00000000       1.00000000       1.00000000       2.00000000       1.00000000       3.14159265      -0.01135906      -0.00000000      -0.00000000      -0.00000000      -0.00000000      -0.00000000
2
Lattice="20.0 0.0 0.0 0.0 20.0 0.0 0.0 0.0 20.0" Properties=species:S:1:pos:R:3:quaternions:R:4:c_diameter\[1\]:R:1:c_diameter\[2\]:R:1:c_diameter\[3\]:R:1:angles:R:1:forces:R:3:torques:R:3 separation_distance=3.64618406285073 energy=-0.005956247362367363 pbc="F F F"
X       10.00000000      10.00000000      10.00000000       1.00000000       0.00000000       0.00000000       0.00000000       1.00000000       2.00000000       1.00000000       0.00000000       0.00676421       0.00000000       0.00000000      -0.00000000      -0.00000000      -0.00000000
X       13.64618406      10.00000000      10.00000000       1.00000000       0.00000000       0.00000000       0.00000000       1.00000000       2.00000000       1.00000000       0.00000000      -0.00676421      -0.00000000      -0.00000000      -0.00000000      -0.00000000      -0.00000000
2
Lattice="20.0 0.0 0.0 0.0 20.0 0.0 0.0 0.0 20.0" Properties=species:S:1:pos:R:3:quaternions:R:4:c_diameter\[1\]:R:1:c_diameter\[2\]:R:1:c_diameter\[3\]:R:1:angles:R:1:forces:R:3:torques:R:3 separation_distance=3.64618406285073 energy=-0.006655786515193171 pbc="F F F"
X       10.00000000      10.00000000      10.00000000       1.00000000       0.00000000       0.00000000       0.00000000       1.00000000       2.00000000       1.00000000       0.00000000       0.00772528      -0.00169384       0.00000000      -0.00000000      -0.00000000       0.00242000
X       13.64618406      10.00000000      10.00000000       0.98480775       0.00000000       0.00000000       0.17364818       1.00000000       2.00000000       1.00000000       0.34906585      -0.00772528       0.00169384      -0.00000000      -0.00000000      -0.00000000       0.00372462
2
Lattice="20.0 0.0 0.0 0.0 20.0 0.0 0.0 0.0 20.0" Properties=species:S:1:pos:R:3:quaternions:R:4:c_diameter\[1\]:R:1:c_diameter\[2\]:R:1:c_diameter\[3\]:R:1:angles:R:1:forces:R:3:torques:R:3 separation_distance=3.64618406285073 energy=-0.008350713098765367 pbc="F F F"
X       10.00000000      10.00000000      10.00000000       1.00000000       0.00000000       0.00000000       0.00000000       1.00000000       2.00000000       1.00000000       0.00000000       0.01027774      -0.00258784       0.00000000      -0.00000000      -0.00000000       0.00377398
X       13.64618406      10.00000000      10.00000000       0.93969262       0.00000000       0.00000000       0.34202014       1.00000000       2.00000000       1.00000000       0.69813170      -0.01027774       0.00258784      -0.00000000      -0.00000000      -0.00000000       0.00565877
2
Lattice="20.0 0.0 0.0 0.0 20.0 0.0 0.0 0.0 20.0" Properties=species:S:1:pos:R:3:quaternions:R:4:c_diameter\[1\]:R:1:c_diameter\[2\]:R:1:c_diameter\[3\]:R:1:angles:R:1:forces:R:3:torques:R:3 separation_distance=3.64618406285073 energy=-0.010442412045238166 pbc="F F F"
X       10.00000000      10.00000000      10.00000000       1.00000000       0.00000000       0.00000000       0.00000000       1.00000000       2.00000000       1.00000000       0.00000000       0.01385799      -0.00252350       0.00000000      -0.00000000      -0.00000000       0.00325392
X       13.64618406      10.00000000      10.00000000       0.86602540       0.00000000       0.00000000       0.50000000       1.00000000       2.00000000       1.00000000       1.04719755      -0.01385799       0.00252350      -0.00000000      -0.00000000      -0.00000000       0.00592452
2
Lattice="20.0 0.0 0.0 0.0 20.0 0.0 0.0 0.0 20.0" Properties=species:S:1:pos:R:3:quaternions:R:4:c_diameter\[1\]:R:1:c_diameter\[2\]:R:1:c_diameter\[3\]:R:1:angles:R:1:forces:R:3:torques:R:3 separation_distance=3.64618406285073 energy=-0.012127922806169372 pbc="F F F"
X       10.00000000      10.00000000      10.00000000       1.00000000       0.00000000       0.00000000       0.00000000       1.00000000       2.00000000       1.00000000       0.00000000       0.01703277      -0.00114852       0.00000000      -0.00000000      -0.00000000       0.00125433
X       13.64618406      10.00000000      10.00000000       0.76604444       0.00000000       0.00000000       0.64278761       1.00000000       2.00000000       1.00000000       1.39626340      -0.01703277       0.00114852      -0.00000000      -0.00000000      -0.00000000       0.00289379
2
Lattice="20.0 0.0 0.0 0.0 20.0 0.0 0.0 0.0 20.0" Properties=species:S:1:pos:R:3:quaternions:R:4:c_diameter\[1\]:R:1:c_diameter\[2\]:R:1:c_diameter\[3\]:R:1:angles:R:1:forces:R:3:torques:R:3 separation_distance=3.64618406285073 energy=-0.012127922806169372 pbc="F F F"
X       10.00000000      10.00000000      10.00000000       1.00000000       0.00000000       0.00000000       0.00000000       1.00000000       2.00000000       1.00000000       0.00000000       0.01703277       0.00114852       0.00000000      -0.00000000      -0.00000000      -0.00125433
X       13.64618406      10.00000000      10.00000000       0.64278761       0.00000000       0.00000000       0.76604444       1.00000000       2.00000000       1.00000000       1.74532925      -0.01703277      -0.00114852      -0.00000000      -0.00000000      -0.00000000      -0.00289379
2
Lattice="20.0 0.0 0.0 0.0 20.0 0.0 0.0 0.0 20.0" Properties=species:S:1:pos:R:3:quaternions:R:4:c_diameter\[1\]:R:1:c_diameter\[2\]:R:1:c_diameter\[3\]:R:1:angles:R:1:forces:R:3:torques:R:3 separation_distance=3.64618406285073 energy=-0.010442412045238167 pbc="F F F"
X       10.00000000      10.00000000      10.00000000       1.00000000       0.00000000       0.00000000       0.00000000       1.00000000       2.00000000       1.00000000       0.00000000       0.01385799       0.00252350       0.00000000      -0.00000000      -0.00000000      -0.00325392
X       13.64618406      10.00000000      10.00000000       0.50000000       0.00000000       0.00000000       0.86602540       1.00000000       2.00000000       1.00000000       2.09439510      -0.01385799      -0.00252350      -0.00000000      -0.00000000      -0.00000000      -0.00592452
2
Lattice="20.0 0.0 0.0 0.0 20.0 0.0 0.0 0.0 20.0" Properties=species:S:1:pos:R:3:quaternions:R:4:c_diameter\[1\]:R:1:c_diameter\[2\]:R:1:c_diameter\[3\]:R:1:angles:R:1:forces:R:3:torques:R:3 separation_distance=3.64618406285073 energy=-0.008350713098765363 pbc="F F F"
X       10.00000000      10.00000000      10.00000000       1.00000000       0.00000000       0.00000000       0.00000000       1.00000000       2.00000000       1.00000000       0.00000000       0.01027774       0.00258784       0.00000000      -0.00000000      -0.00000000      -0.00377398
X       13.64618406      10.00000000      10.00000000       0.34202014       0.00000000       0.00000000       0.93969262       1.00000000       2.00000000       1.00000000       2.44346095      -0.01027774      -0.00258784      -0.00000000      -0.00000000      -0.00000000      -0.00565877
2
Lattice="20.0 0.0 0.0 0.0 20.0 0.0 0.0 0.0 20.0" Properties=species:S:1:pos:R:3:quaternions:R:4:c_diameter\[1\]:R:1:c_diameter\[2\]:R:1:c_diameter\[3\]:R:1:angles:R:1:forces:R:3:torques:R:3 separation_distance=3.64618406285073 energy=-0.006655786515193169 pbc="F F F"
X       10.00000000      10.00000000      10.00000000       1.00000000       0.00000000       0.00000000       0.00000000       1.00000000       2.00000000       1.00000000       0.00000000       0.00772528       0.00169384       0.00000000      -0.00000000      -0.00000000      -0.00242000
X       13.64618406      10.00000000      10.00000000       0.17364818       0.00000000       0.00000000       0.98480775       1.00000000       2.00000000       1.00000000       2.79252680      -0.00772528      -0.00169384      -0.00000000      -0.00000000      -0.00000000      -0.00372462
2
Lattice="20.0 0.0 0.0 0.0 20.0 0.0 0.0 0.0 20.0" Properties=species:S:1:pos:R:3:quaternions:R:4:c_diameter\[1\]:R:1:c_diameter\[2\]:R:1:c_diameter\[3\]:R:1:angles:R:1:forces:R:3:torques:R:3 separation_distance=3.64618406285073 energy=-0.005956247362367363 pbc="F F F"
X       10.00000000      10.00000000      10.00000000       1.00000000       0.00000000       0.00000000       0.00000000       1.00000000       2.00000000       1.00000000       0.00000000       0.00676421       0.00000000       0.00000000      -0.00000000      -0.00000000      -0.00000000
X       13.64618406      10.00000000      10.00000000       0.00000000       0.00000000       0.00000000       1.00000000       1.00000000       2.00000000       1.00000000       3.14159265      -0.00676421      -0.00000000      -0.00000000      -0.00000000      -0.00000000      -0.00000000
2
Lattice="20.0 0.0 0.0 0.0 20.0 0.0 0.0 0.0 20.0" Properties=species:S:1:pos:R:3:quaternions:R:4:c_diameter\[1\]:R:1:c_diameter\[2\]:R:1:c_diameter\[3\]:R:1:angles:R:1:forces:R:3:torques:R:3 separation_distance=3.96324354657688 energy=-0.004240896709264013 pbc="F F F"
X       10.00000000      10.00000000      10.00000000       1.00000000       0.00000000       0.00000000       0.00000000       1.00000000       2.00000000       1.00000000       0.00000000       0.00429276       0.00000000       0.00000000      -0.00000000      -0.00000000      -0.00000000
X       13.96324355      10.00000000      10.00000000       1.00000000       0.00000000       0.00000000       0.00000000       1.00000000       2.00000000       1.00000000       0.00000000      -0.00429276      -0.00000000      -0.00000000      -0.00000000      -0.00000000      -0.00000000
2
Lattice="20.0 0.0 0.0 0.0 20.0 0.0 0.0 0.0 20.0" Properties=species:S:1:pos:R:3:quaternions:R:4:c_diameter\[1\]:R:1:c_diameter\[2\]:R:1:c_diameter\[3\]:R:1:angles:R:1:forces:R:3:torques:R:3 separation_distance=3.96324354657688 energy=-0.004706079601386214 pbc="F F F"
X       10.00000000      10.00000000      10.00000000       1.00000000       0.00000000       0.00000000       0.00000000       1.00000000       2.00000000       1.00000000       0.00000000       0.00485424      -0.00108198       0.00000000      -0.00000000      -0.00000000       0.00181673
X       13.96324355      10.00000000      10.00000000       0.98480775       0.00000000       0.00000000       0.17364818       1.00000000       2.00000000       1.00000000       0.34906585      -0.00485424       0.00108198      -0.00000000      -0.00000000      -0.00000000       0.00244701
2
Lattice="20.0 0.0 0.0 0.0 20.0 0.0 0.0 0.0 20.0" Properties=species:S:1:pos:R:3:quaternions:R:4:c_diameter\[1\]:R:1:c_diameter\[2\]:R:1:c_diameter\[3\]:R:1:angles:R:1:forces:R:3:torques:R:3 separation_distance=3.96324354657688 energy=-0.0057907466044051815 pbc="F F F"
X       10.00000000      10.00000000      10.00000000       1.00000000       0.00000000       0.00000000       0.00000000       1.00000000       2.00000000       1.00000000       0.00000000       0.00628373      -0.00160061       0.00000000      -0.00000000      -0.00000000       0.00282307
X       13.96324355      10.00000000      10.00000000       0.93969262       0.00000000       0.00000000       0.34202014       1.00000000       2.00000000       1.00000000       0.69813170      -0.00628373       0.00160061      -0.00000000      -0.00000000      -0.00000000       0.00351921
2
Lattice="20.0 0.0 0.0 0.0 20.0 0.0 0.0 0.0 20.0" Properties=species:S:1:pos:R:3:quaternions:R:4:c_diameter\[1\]:R:1:c_diameter\[2\]:R:1:c_diameter\[3\]:R:1:angles:R:1:forces:R:3:torques:R:3 separation_distance=3.96324354657688 energy=-0.007050861849855543 pbc="F F F"
X       10.00000000      10.00000000      10.00000000       1.00000000       0.00000000       0.00000000       0.00000000       1.00000000       2.00000000       1.00000000       0.00000000       0.00816717      -0.00148991       0.00000000      -0.00000000      -0.00000000       0.00243234
X       13.96324355      10.00000000      10.00000000       0.86602540       0.00000000       0.00000000       0.50000000       1.00000000       2.00000000       1.00000000       1.04719755      -0.00816717       0.00148991      -0.00000000      -0.00000000      -0.00000000       0.00346536
2
Lattice="20.0 0.0 0.0 0.0 20.0 0.0 0.0 0.0 20.0" Properties=species:S:1:pos:R:3:quaternions:R:4:c_diameter\[1\]:R:1:c_diameter\[2\]:R:1:c_diameter\[3\]:R:1:angles:R:1:forces:R:3:torques:R:3 separation_distance=3.96324354657688 energy=-0.008016323187486463 pbc="F F F"
X       10.00000000      10.00000000      10.00000000       1.00000000       0.00000000       0.00000000       0.00000000       1.00000000       2.00000000       1.00000000       0.00000000       0.00975284      -0.00065299       0.00000000      -0.00000000      -0.00000000       0.00094130
X       13.96324355      10.00000000      10.00000000       0.76604444       0.00000000       0.00000000       0.64278761       1.00000000       2.00000000       1.00000000       1.39626340      -0.00975284       0.00065299      -0.00000000      -0.00000000      -0.00000000       0.00162908
2
Lattice="20.0 0.0 0.0 0.0 20.0 0.0 0.0 0.0 20.0" Properties=species:S:1:pos:R:3:quaternions:R:4:c_diameter\[1\]:R:1:c_diameter\[2\]:R:1:c_diameter\[3\]:R:1:angles:R:1:forces:R:3:torques:R:3 separation_distance=3.96324354657688 energy=-0.008016323187486463 pbc="F F F"
X       10.00000000      10.00000000      10.00000000       1.00000000       0.00000000       0.00000000       0.00000000       1.00000000       2.00000000       1.00000000       0.00000000       0.00975284       0.00065299       0.00000000      -0.00000000      -0.00000000      -0.00094130
X       13.96324355      10.00000000      10.00000000       0.64278761       0.00000000       0.00000000       0.76604444       1.00000000       2.00000000       1.00000000       1.74532925      -0.00975284      -0.00065299      -0.00000000      -0.00000000      -0.00000000      -0.00162908
2
Lattice="20.0 0.0 0.0 0.0 20.0 0.0 0.0 0.0 20.0" Properties=species:S:1:pos:R:3:quaternions:R:4:c_diameter\[1\]:R:1:c_diameter\[2\]:R:1:c_diameter\[3\]:R:1:angles:R:1:forces:R:3:torques:R:3 separation_distance=3.96324354657688 energy=-0.007050861849855545 pbc="F F F"
X       10.00000000      10.00000000      10.00000000       1.00000000       0.00000000       0.00000000       0.00000000       1.00000000       2.00000000       1.00000000       0.00000000       0.00816717       0.00148991       0.00000000      -0.00000000      -0.00000000      -0.00243234
X       13.96324355      10.00000000      10.00000000       0.50000000       0.00000000       0.00000000       0.86602540       1.00000000       2.00000000       1.00000000       2.09439510      -0.00816717      -0.00148991      -0.00000000      -0.00000000      -0.00000000      -0.00346536
2
Lattice="20.0 0.0 0.0 0.0 20.0 0.0 0.0 0.0 20.0" Properties=species:S:1:pos:R:3:quaternions:R:4:c_diameter\[1\]:R:1:c_diameter\[2\]:R:1:c_diameter\[3\]:R:1:angles:R:1:forces:R:3:torques:R:3 separation_distance=3.96324354657688 energy=-0.005790746604405181 pbc="F F F"
X       10.00000000      10.00000000      10.00000000       1.00000000       0.00000000       0.00000000       0.00000000       1.00000000       2.00000000       1.00000000       0.00000000       0.00628373       0.00160061       0.00000000      -0.00000000      -0.00000000      -0.00282307
X       13.96324355      10.00000000      10.00000000       0.34202014       0.00000000       0.00000000       0.93969262       1.00000000       2.00000000       1.00000000       2.44346095      -0.00628373      -0.00160061      -0.00000000      -0.00000000      -0.00000000      -0.00351921
2
Lattice="20.0 0.0 0.0 0.0 20.0 0.0 0.0 0.0 20.0" Properties=species:S:1:pos:R:3:quaternions:R:4:c_diameter\[1\]:R:1:c_diameter\[2\]:R:1:c_diameter\[3\]:R:1:angles:R:1:forces:R:3:torques:R:3 separation_distance=3.96324354657688 energy=-0.0047060796013862136 pbc="F F F"
X       10.00000000      10.00000000      10.00000000       1.00000000       0.00000000       0.00000000       0.00000000       1.00000000       2.00000000       1.00000000       0.00000000       0.00485424       0.00108198       0.00000000      -0.00000000      -0.00000000      -0.00181673
X       13.96324355      10.00000000      10.00000000       0.17364818       0.00000000       0.00000000       0.98480775       1.00000000       2.00000000       1.00000000       2.79252680      -0.00485424      -0.00108198      -0.00000000      -0.00000000      -0.00000000      -0.00244701
2
Lattice="20.0 0.0 0.0 0.0 20.0 0.0 0.0 0.0 20.0" Properties=species:S:1:pos:R:3:quaternions:R:4:c_diameter\[1\]:R:1:c_diameter\[2\]:R:1:c_diameter\[3\]:R:1:angles:R:1:forces:R:3:torques:R:3 separation_distance=3.96324354657688 energy=-0.004240896709264013 pbc="F F F"
X       10.00000000      10.00000000      10.00000000       1.00000000       0.00000000       0.00000000       0.00000000       1.00000000       2.00000000       1.00000000       0.00000000       0.00429276       0.00000000       0.00000000      -0.00000000      -0.00000000      -0.00000000
X       13.96324355      10.00000000      10.00000000       0.00000000       0.00000000       0.00000000       1.00000000       1.00000000       2.00000000       1.00000000       3.14159265      -0.00429276      -0.00000000      -0.00000000      -0.00000000      -0.00000000      -0.00000000
2
Lattice="20.0 0.0 0.0 0.0 20.0 0.0 0.0 0.0 20.0" Properties=species:S:1:pos:R:3:quaternions:R:4:c_diameter\[1\]:R:1:c_diameter\[2\]:R:1:c_diameter\[3\]:R:1:angles:R:1:forces:R:3:torques:R:3 separation_distance=4.28030303030303 energy=-0.003126079843462978 pbc="F F F"
X       10.00000000      10.00000000      10.00000000       1.00000000       0.00000000       0.00000000       0.00000000       1.00000000       2.00000000       1.00000000       0.00000000       0.00286139       0.00000000       0.00000000      -0.00000000      -0.00000000      -0.00000000
X       14.28030303      10.00000000      10.00000000       1.00000000       0.00000000       0.00000000       0.00000000       1.00000000       2.00000000       1.00000000       0.00000000      -0.00286139      -0.00000000      -0.00000000      -0.00000000      -0.00000000      -0.00000000
2
Lattice="20.0 0.0 0.0 0.0 20.0 0.0 0.0 0.0 20.0" Properties=species:S:1:pos:R:3:quaternions:R:4:c_diameter\[1\]:R:1:c_diameter\[2\]:R:1:c_diameter\[3\]:R:1:angles:R:1:forces:R:3:torques:R:3 separation_distance=4.28030303030303 energy=-0.0034502291698271063 pbc="F F F"
X       10.00000000      10.00000000      10.00000000       1.00000000       0.00000000       0.00000000       0.00000000       1.00000000       2.00000000       1.00000000       0.00000000       0.00321040      -0.00072401       0.00000000      -0.00000000      -0.00000000       0.00139206
X       14.28030303      10.00000000      10.00000000       0.98480775       0.00000000       0.00000000       0.17364818       1.00000000       2.00000000       1.00000000       0.34906585      -0.00321040       0.00072401      -0.00000000      -0.00000000      -0.00000000       0.00168784
2
Lattice="20.0 0.0 0.0 0.0 20.0 0.0 0.0 0.0 20.0" Properties=species:S:1:pos:R:3:quaternions:R:4:c_diameter\[1\]:R:1:c_diameter\[2\]:R:1:c_diameter\[3\]:R:1:angles:R:1:forces:R:3:torques:R:3 separation_distance=4.28030303030303 energy=-0.004181912619615 pbc="F F F"
X       10.00000000      10.00000000      10.00000000       1.00000000       0.00000000       0.00000000       0.00000000       1.00000000       2.00000000       1.00000000       0.00000000       0.00406729      -0.00104427       0.00000000      -0.00000000      -0.00000000       0.00215365
X       14.28030303      10.00000000      10.00000000       0.93969262       0.00000000       0.00000000       0.34202014       1.00000000       2.00000000       1.00000000       0.69813170      -0.00406729       0.00104427      -0.00000000      -0.00000000      -0.00000000       0.00231578
2
Lattice="20.0 0.0 0.0 0.0 20.0 0.0 0.0 0.0 20.0" Properties=species:S:1:pos:R:3:quaternions:R:4:c_diameter\[1\]:R:1:c_diameter\[2\]:R:1:c_diameter\[3\]:R:1:angles:R:1:forces:R:3:torques:R:3 separation_distance=4.28030303030303 energy=-0.004988568357276618 pbc="F F F"
X       10.00000000      10.00000000      10.00000000       1.00000000       0.00000000       0.00000000       0.00000000       1.00000000       2.00000000       1.00000000       0.00000000       0.00513667      -0.00093702       0.00000000      -0.00000000      -0.00000000       0.00184847
X       14.28030303      10.00000000      10.00000000       0.86602540       0.00000000       0.00000000       0.50000000       1.00000000       2.00000000       1.00000000       1.04719755      -0.00513667       0.00093702      -0.00000000      -0.00000000      -0.00000000       0.00216153
2
Lattice="20.0 0.0 0.0 0.0 20.0 0.0 0.0 0.0 20.0" Properties=species:S:1:pos:R:3:quaternions:R:4:c_diameter\[1\]:R:1:c_diameter\[2\]:R:1:c_diameter\[3\]:R:1:angles:R:1:forces:R:3:torques:R:3 separation_distance=4.28030303030303 energy=-0.005580018479925232 pbc="F F F"
X       10.00000000      10.00000000      10.00000000       1.00000000       0.00000000       0.00000000       0.00000000       1.00000000       2.00000000       1.00000000       0.00000000       0.00599794      -0.00039855       0.00000000      -0.00000000      -0.00000000       0.00071472
X       14.28030303      10.00000000      10.00000000       0.76604444       0.00000000       0.00000000       0.64278761       1.00000000       2.00000000       1.00000000       1.39626340      -0.00599794       0.00039855      -0.00000000      -0.00000000      -0.00000000       0.00098321
2
Lattice="20.0 0.0 0.0 0.0 20.0 0.0 0.0 0.0 20.0" Properties=species:S:1:pos:R:3:quaternions:R:4:c_diameter\[1\]:R:1:c_diameter\[2\]:R:1:c_diameter\[3\]:R:1:angles:R:1:forces:R:3:torques:R:3 separation_distance=4.28030303030303 energy=-0.005580018479925232 pbc="F F F"
X       10.00000000      10.00000000      10.00000000       1.00000000       0.00000000       0.00000000       0.00000000       1.00000000       2.00000000       1.00000000       0.00000000       0.00599794       0.00039855       0.00000000      -0.00000000      -0.00000000      -0.00071472
X       14.28030303      10.00000000      10.00000000       0.64278761       0.00000000       0.00000000       0.76604444       1.00000000       2.00000000       1.00000000       1.74532925      -0.00599794      -0.00039855      -0.00000000      -0.00000000      -0.00000000      -0.00098321
2
Lattice="20.0 0.0 0.0 0.0 20.0 0.0 0.0 0.0 20.0" Properties=species:S:1:pos:R:3:quaternions:R:4:c_diameter\[1\]:R:1:c_diameter\[2\]:R:1:c_diameter\[3\]:R:1:angles:R:1:forces:R:3:torques:R:3 separation_distance=4.28030303030303 energy=-0.0049885683572766185 pbc="F F F"
X       10.00000000      10.00000000      10.00000000       1.00000000       0.00000000       0.00000000       0.00000000       1.00000000       2.00000000       1.00000000       0.00000000       0.00513667       0.00093702       0.00000000      -0.00000000      -0.00000000      -0.00184847
X       14.28030303      10.00000000      10.00000000       0.50000000       0.00000000       0.00000000       0.86602540       1.00000000       2.00000000       1.00000000       2.09439510      -0.00513667      -0.00093702      -0.00000000      -0.00000000      -0.00000000      -0.00216153
2
Lattice="20.0 0.0 0.0 0.0 20.0 0.0 0.0 0.0 20.0" Properties=species:S:1:pos:R:3:quaternions:R:4:c_diameter\[1\]:R:1:c_diameter\[2\]:R:1:c_diameter\[3\]:R:1:angles:R:1:forces:R:3:torques:R:3 separation_distance=4.28030303030303 energy=-0.004181912619614999 pbc="F F F"
X       10.00000000      10.00000000      10.00000000       1.00000000       0.00000000       0.00000000       0.00000000       1.00000000       2.00000000       1.00000000       0.00000000       0.00406729       0.00104427       0.00000000      -0.00000000      -0.00000000      -0.00215365
X       14.28030303      10.00000000      10.00000000       0.34202014       0.00000000       0.00000000       0.93969262       1.00000000       2.00000000       1.00000000       2.44346095      -0.00406729      -0.00104427      -0.00000000      -0.00000000      -0.00000000      -0.00231578
2
Lattice="20.0 0.0 0.0 0.0 20.0 0.0 0.0 0.0 20.0" Properties=species:S:1:pos:R:3:quaternions:R:4:c_diameter\[1\]:R:1:c_diameter\[2\]:R:1:c_diameter\[3\]:R:1:angles:R:1:forces:R:3:torques:R:3 separation_distance=4.28030303030303 energy=-0.003450229169827106 pbc="F F F"
X       10.00000000      10.00000000      10.00000000       1.00000000       0.00000000       0.00000000       0.00000000       1.00000000       2.00000000       1.00000000       0.00000000       0.00321040       0.00072401       0.00000000      -0.00000000      -0.00000000      -0.00139206
X       14.28030303      10.00000000      10.00000000       0.17364818       0.00000000       0.00000000       0.98480775       1.00000000       2.00000000       1.00000000       2.79252680      -0.00321040      -0.00072401      -0.00000000      -0.00000000      -0.00000000      -0.00168784
2
Lattice="20.0 0.0 0.0 0.0 20.0 0.0 0.0 0.0 20.0" Properties=species:S:1:pos:R:3:quaternions:R:4:c_diameter\[1\]:R:1:c_diameter\[2\]:R:1:c_diameter\[3\]:R:1:angles:R:1:forces:R:3:torques:R:3 separation_distance=4.28030303030303 energy=-0.003126079843462978 pbc="F F F"
X       10.00000000      10.00000000      10.00000000       1.00000000       0.00000000       0.00000000       0.00000000       1.00000000       2.00000000       1.00000000       0.00000000       0.00286139       0.00000000       0.00000000      -0.00000000      -0.00000000      -0.00000000
X       14.28030303      10.00000000      10.00000000       0.00000000       0.00000000       0.00000000       1.00000000       1.00000000       2.00000000       1.00000000       3.14159265      -0.00286139      -0.00000000      -0.00000000      -0.00000000      -0.00000000      -0.00000000
