2
Properties=species:S:1:pos:R:3:quaternions:R:4:old_torques:R:3:torques:R:3:c_diameter[1]:R:1:c_diameter[2]:R:1:c_diameter[3]:R:1:forces:R:3:energies:R:1 separation_distance=3.2512464657055102 old_energy=-0.2885023002858757 distance=3.2512464664247127 gb_cutoff=5.0 gb_epsilon=1.0 gb_sigma=1.0 energy=-0.0030082932602971454 pbc="F F F"
X       10.00000000      10.00000000      10.00000000       0.46802272      -0.66963551      -0.57297643      -0.06512314      -0.39359456       0.30020815       0.24757135       0.00002039      -0.00051030       0.00152086       1.00000000       1.50000000       2.00000000       0.00684392       0.00776837       0.00664626      -0.00300829
X       11.75508575      11.99903434      11.86926170       0.58951259      -0.50841202       0.03338041       0.62679971      -0.27469095      -0.57009725      -0.28160377      -0.00125540       0.00163862      -0.00156794       1.00000000       1.50000000       2.00000000      -0.00684392      -0.00776837      -0.00664626      -0.00300829
2
Properties=species:S:1:pos:R:3:quaternions:R:4:old_torques:R:3:torques:R:3:c_diameter[1]:R:1:c_diameter[2]:R:1:c_diameter[3]:R:1:forces:R:3:energies:R:1 separation_distance=2.98417180302835 old_energy=-0.5123520482861137 distance=2.984171806335408 gb_cutoff=5.0 gb_epsilon=1.0 gb_sigma=1.0 energy=-0.0181241960938818 pbc="F F F"
X       10.00000000      10.00000000      10.00000000       0.18891149       0.56803749      -0.78828931       0.14228779      -0.30683374       1.26425802      -1.30154944      -0.02654527       0.02846262      -0.00188147       1.00000000       1.50000000       2.00000000       0.06346713       0.05594643       0.05209011      -0.01812420
X       11.98815283      11.50524599      11.63913520       0.16143203       0.76903002       0.06466925      -0.61510196      -2.09107983       0.30245055      -0.20454876       0.01324993      -0.02799451       0.01757787       1.00000000       1.50000000       2.00000000      -0.06346713      -0.05594643      -0.05209011      -0.01812420
2
Properties=species:S:1:pos:R:3:quaternions:R:4:old_torques:R:3:torques:R:3:c_diameter[1]:R:1:c_diameter[2]:R:1:c_diameter[3]:R:1:forces:R:3:energies:R:1 separation_distance=3.1430930279122813 old_energy=-0.543591079604109 distance=3.143093030674256 gb_cutoff=5.0 gb_epsilon=1.0 gb_sigma=1.0 energy=-0.0039060330665815 pbc="F F F"
X       10.00000000      10.00000000      10.00000000       0.28965749       0.09426364       0.83621905       0.45601601       0.21659561       0.09801896      -0.18150707       0.00433579      -0.00041262      -0.00223314       1.00000000       1.50000000       2.00000000       0.00926345       0.00868866       0.01069795      -0.00390603
X       11.84616180      11.71478376      11.87889251       0.22123935      -0.61542875       0.67763149       0.33632746       0.01168486      -0.49041010       0.01549974      -0.00231619      -0.00193250       0.00238901       1.00000000       1.50000000       2.00000000      -0.00926345      -0.00868866      -0.01069795      -0.00390603
2
Properties=species:S:1:pos:R:3:quaternions:R:4:old_torques:R:3:torques:R:3:c_diameter[1]:R:1:c_diameter[2]:R:1:c_diameter[3]:R:1:forces:R:3:energies:R:1 separation_distance=2.6356379424739456 old_energy=-0.38488152561902467 distance=2.6356379425310723 gb_cutoff=5.0 gb_epsilon=1.0 gb_sigma=1.0 energy=-0.011351377222947238 pbc="F F F"
X       10.00000000      10.00000000      10.00000000       0.10032036       0.88738807       0.36361803       0.26506635       0.00160239      -0.20687187      -0.16991970      -0.00699698       0.00292018       0.00501955       1.00000000       1.50000000       2.00000000       0.04043679       0.02730295       0.03109354      -0.01135138
X       11.74978230      11.46401480      11.31966281       0.42906373      -0.39006668       0.46893307       0.66622374      -0.14640830      -0.49998112      -0.48142855       0.01648769      -0.00396419      -0.01644539       1.00000000       1.50000000       2.00000000      -0.04043679      -0.02730295      -0.03109354      -0.01135138
2
Properties=species:S:1:pos:R:3:quaternions:R:4:old_torques:R:3:torques:R:3:c_diameter[1]:R:1:c_diameter[2]:R:1:c_diameter[3]:R:1:forces:R:3:energies:R:1 separation_distance=2.848277154615087 old_energy=-0.4965058599866587 distance=2.8482771522100707 gb_cutoff=5.0 gb_epsilon=1.0 gb_sigma=1.0 energy=-0.014010592970757997 pbc="F F F"
X       10.00000000      10.00000000      10.00000000       0.54669476      -0.59683666       0.39532350      -0.43431575       0.07201590      -6.52031529      -0.18903927      -0.00717083      -0.01690759       0.01297820       1.00000000       1.50000000       2.00000000       0.02820632       0.04267395       0.05222012      -0.01401059
X       11.42848713      11.63064276      11.84746081       0.74699038       0.18017526      -0.60631037      -0.20476811      -0.16977531     -20.23422120       0.28394010       0.01348473      -0.00557811       0.00198657       1.00000000       1.50000000       2.00000000      -0.02820632      -0.04267395      -0.05222012      -0.01401059
2
Properties=species:S:1:pos:R:3:quaternions:R:4:old_torques:R:3:torques:R:3:c_diameter[1]:R:1:c_diameter[2]:R:1:c_diameter[3]:R:1:forces:R:3:energies:R:1 separation_distance=2.848686490279649 old_energy=-0.5335739274020029 distance=2.8486864906741216 gb_cutoff=5.0 gb_epsilon=1.0 gb_sigma=1.0 energy=-0.029274991868630976 pbc="F F F"
X       10.00000000      10.00000000      10.00000000       0.66105428      -0.18623337       0.47088553       0.55370677       0.53410051       0.41534753       0.96981273       0.00238754       0.01969889      -0.03472548       1.00000000       1.50000000       2.00000000       0.13455367       0.09572937       0.06161211      -0.02927499
X       11.65708873      11.98881776      11.18898090       0.85879492      -0.50649846       0.03407855      -0.06905970       0.61292109      -1.84995615      -1.21868271       0.00632731       0.03818612      -0.07424518       1.00000000       1.50000000       2.00000000      -0.13455367      -0.09572937      -0.06161211      -0.02927499
2
Properties=species:S:1:pos:R:3:quaternions:R:4:old_torques:R:3:torques:R:3:c_diameter[1]:R:1:c_diameter[2]:R:1:c_diameter[3]:R:1:forces:R:3:energies:R:1 separation_distance=3.101139150237928 old_energy=-0.19754451018478358 distance=3.101139154694202 gb_cutoff=5.0 gb_epsilon=1.0 gb_sigma=1.0 energy=-0.012548018647137218 pbc="F F F"
X       10.00000000      10.00000000      10.00000000       0.51752336       0.36367077      -0.57566260       0.51819467      -0.11039105       0.51639068       0.15566532       0.02350020      -0.01660179      -0.00249565       1.00000000       1.50000000       2.00000000       0.03184362       0.03681552       0.04388628      -0.01254802
X       11.96654797      11.84213991      11.53501586       0.44135226      -0.07532910      -0.86957331       0.20826897      -0.09729542      -0.19715138      -0.25826504       0.00083207      -0.02082222       0.01623473       1.00000000       1.50000000       2.00000000      -0.03184362      -0.03681552      -0.04388628      -0.01254802
2
Properties=species:S:1:pos:R:3:quaternions:R:4:old_torques:R:3:torques:R:3:c_diameter[1]:R:1:c_diameter[2]:R:1:c_diameter[3]:R:1:forces:R:3:energies:R:1 separation_distance=2.9238594596913483 old_energy=-0.4386052541769153 distance=2.923859461359522 gb_cutoff=5.0 gb_epsilon=1.0 gb_sigma=1.0 energy=-0.014815904123468475 pbc="F F F"
X       10.00000000      10.00000000      10.00000000       0.67003267      -0.44111214       0.50799913       0.31370875       3.29457159       0.67899149       0.59748169       0.03567814      -0.02010841       0.01159744       1.00000000       1.50000000       2.00000000       0.00982074       0.04663056       0.06483401      -0.01481590
X       11.00526552      11.88974136      11.99180144       0.34646831       0.06656416      -0.93507602      -0.03408454       0.92502283       2.57198106       2.52543390      -0.00603745      -0.02550603       0.01672000       1.00000000       1.50000000       2.00000000      -0.00982074      -0.04663056      -0.06483401      -0.01481590
2
Properties=species:S:1:pos:R:3:quaternions:R:4:old_torques:R:3:torques:R:3:c_diameter[1]:R:1:c_diameter[2]:R:1:c_diameter[3]:R:1:forces:R:3:energies:R:1 separation_distance=2.772362782330911 old_energy=-0.5379151612456559 distance=2.7723627839900673 gb_cutoff=5.0 gb_epsilon=1.0 gb_sigma=1.0 energy=-0.014631109911200599 pbc="F F F"
X       10.00000000      10.00000000      10.00000000       0.16357629       0.51207241      -0.81334257      -0.22248262      -0.00961403       0.15758877       0.39055756      -0.02828240       0.00633625       0.00938129       1.00000000       1.50000000       2.00000000       0.03282535       0.05784737       0.04052001      -0.01463111
X       11.40073671      11.89331596      11.46263008       0.73271123       0.57037308       0.02177717      -0.37058678      -0.55000355      -0.93981173      -0.58006558       0.02039027      -0.01508277       0.00949889       1.00000000       1.50000000       2.00000000      -0.03282535      -0.05784737      -0.04052001      -0.01463111
2
Properties=species:S:1:pos:R:3:quaternions:R:4:old_torques:R:3:torques:R:3:c_diameter[1]:R:1:c_diameter[2]:R:1:c_diameter[3]:R:1:forces:R:3:energies:R:1 separation_distance=2.687728404015648 old_energy=-0.5242845445425607 distance=2.6877284048242487 gb_cutoff=5.0 gb_epsilon=1.0 gb_sigma=1.0 energy=-0.024414953349837204 pbc="F F F"
X       10.00000000      10.00000000      10.00000000       0.67314068      -0.44725046      -0.07503375       0.58413919       1.13669328       2.29941107       2.26681195      -0.02379778       0.01592189       0.00224333       1.00000000       1.50000000       2.00000000       0.09463414       0.07015841       0.07467426      -0.02441495
X       11.58089696      11.42881987      11.63802398       0.26857434       0.46299922      -0.70803685       0.46063365      -0.54581122       1.18263905      -2.44446208       0.01557269       0.02103878      -0.02654525       1.00000000       1.50000000       2.00000000      -0.09463414      -0.07015841      -0.07467426      -0.02441495
2
Properties=species:S:1:pos:R:3:quaternions:R:4:old_torques:R:3:torques:R:3:c_diameter[1]:R:1:c_diameter[2]:R:1:c_diameter[3]:R:1:forces:R:3:energies:R:1 separation_distance=2.869914899584302 old_energy=-0.17442227276861105 distance=2.8699148985679277 gb_cutoff=5.0 gb_epsilon=1.0 gb_sigma=1.0 energy=-0.016696883162474155 pbc="F F F"
X       10.00000000      10.00000000      10.00000000       0.56409607      -0.22875822       0.14648623       0.77974809       0.00065304       0.02679253      -0.17872410      -0.00188052       0.01252907      -0.01392863       1.00000000       1.50000000       2.00000000       0.06890123       0.03813875       0.04279188      -0.01669688
X       11.88716075      11.59556154      11.45918443       0.49536144      -0.28448071       0.28546631       0.76954321       0.00362368      -0.01059945      -0.15639971       0.01450612       0.00725537      -0.02403356       1.00000000       1.50000000       2.00000000      -0.06890123      -0.03813875      -0.04279188      -0.01669688
2
Properties=species:S:1:pos:R:3:quaternions:R:4:old_torques:R:3:torques:R:3:c_diameter[1]:R:1:c_diameter[2]:R:1:c_diameter[3]:R:1:forces:R:3:energies:R:1 separation_distance=2.7664735795744124 old_energy=-0.3429795517908613 distance=2.766473577441663 gb_cutoff=5.0 gb_epsilon=1.0 gb_sigma=1.0 energy=-0.009480870154113788 pbc="F F F"
X       10.00000000      10.00000000      10.00000000       0.54339993      -0.81842112      -0.14807730      -0.11391442      -0.04687045       0.58007888       0.10340397       0.00267486       0.00040805      -0.00866669       1.00000000       1.50000000       2.00000000       0.03732185       0.01844367       0.02215942      -0.00948087
X       11.82782937      11.42681352      11.50884692       0.96294885      -0.05380453      -0.03280590      -0.26221815       0.00341212      -0.75074122      -0.02641627       0.00111383       0.01540126      -0.01087275       1.00000000       1.50000000       2.00000000      -0.03732185      -0.01844367      -0.02215942      -0.00948087
2
Properties=species:S:1:pos:R:3:quaternions:R:4:old_torques:R:3:torques:R:3:c_diameter[1]:R:1:c_diameter[2]:R:1:c_diameter[3]:R:1:forces:R:3:energies:R:1 separation_distance=2.7523734529804873 old_energy=-0.7597639013851464 distance=2.7523734528972494 gb_cutoff=5.0 gb_epsilon=1.0 gb_sigma=1.0 energy=-0.010866818536516425 pbc="F F F"
X       10.00000000      10.00000000      10.00000000       0.41395190      -0.64849738       0.17258398       0.61506890      -0.07552153       0.20866130       0.01887307       0.01085257       0.00143747      -0.00577465       1.00000000       1.50000000       2.00000000       0.02386364       0.03698558       0.03228279      -0.01086682
X       11.29939257      11.84811305      11.57213763       0.42656311       0.61794773       0.45107991       0.48240172       0.04060856       0.99251896      -0.03504162      -0.00933675      -0.00586856       0.00973073       1.00000000       1.50000000       2.00000000      -0.02386364      -0.03698558      -0.03228279      -0.01086682
2
Properties=species:S:1:pos:R:3:quaternions:R:4:old_torques:R:3:torques:R:3:c_diameter[1]:R:1:c_diameter[2]:R:1:c_diameter[3]:R:1:forces:R:3:energies:R:1 separation_distance=3.1956983772688417 old_energy=-0.12535176278389948 distance=3.1956983782005457 gb_cutoff=5.0 gb_epsilon=1.0 gb_sigma=1.0 energy=-0.003998165773188555 pbc="F F F"
X       10.00000000      10.00000000      10.00000000       0.44060478       0.57872043       0.23755679      -0.64382984       0.10103952       0.07673997      -0.13223136       0.00633485      -0.00523733       0.00122600       1.00000000       1.50000000       2.00000000       0.00824203       0.01106928       0.01032852      -0.00399817
X       11.74062790      11.97468401      11.81199495       0.07373228       0.48322884      -0.83248194      -0.26082035      -0.00280250      -0.04525194      -0.02985457      -0.00599677       0.00219375       0.00176608       1.00000000       1.50000000       2.00000000      -0.00824203      -0.01106928      -0.01032852      -0.00399817
2
Properties=species:S:1:pos:R:3:quaternions:R:4:old_torques:R:3:torques:R:3:c_diameter[1]:R:1:c_diameter[2]:R:1:c_diameter[3]:R:1:forces:R:3:energies:R:1 separation_distance=2.7265849040818804 old_energy=-0.5578189660809805 distance=2.7265849075022053 gb_cutoff=5.0 gb_epsilon=1.0 gb_sigma=1.0 energy=-0.030438396232703765 pbc="F F F"
X       10.00000000      10.00000000      10.00000000       0.41393056       0.45923115       0.75557134       0.21651835      -0.20458293       0.19721371      -1.84674230      -0.00982267      -0.00493360       0.01553478       1.00000000       1.50000000       2.00000000       0.09648348       0.11497541       0.09869812      -0.03043840
X       11.36923342      11.95739089      11.31456685       0.45657504      -0.13238934       0.55805318       0.68013891      -0.80111973      -1.61455400       1.86151054       0.05187060      -0.00337318      -0.04696248       1.00000000       1.50000000       2.00000000      -0.09648348      -0.11497541      -0.09869812      -0.03043840
2
Properties=species:S:1:pos:R:3:quaternions:R:4:old_torques:R:3:torques:R:3:c_diameter[1]:R:1:c_diameter[2]:R:1:c_diameter[3]:R:1:forces:R:3:energies:R:1 separation_distance=2.8353687832951557 old_energy=-0.6423706258748902 distance=2.8353687877858396 gb_cutoff=5.0 gb_epsilon=1.0 gb_sigma=1.0 energy=-0.0050723402440874 pbc="F F F"
X       10.00000000      10.00000000      10.00000000       0.03525197      -0.89832105      -0.03478163      -0.43653960       0.01362170       0.00710055       0.15723984       0.00324483      -0.00092172      -0.00161195       1.00000000       1.50000000       2.00000000       0.01326586       0.01071573       0.01428864      -0.00507234
X       11.63925481      11.63751474      11.63422927       0.33271608      -0.23016366       0.85204557       0.33217923      -0.02213738       0.08177014       0.09381903       0.00264107      -0.00082155      -0.00254528       1.00000000       1.50000000       2.00000000      -0.01326586      -0.01071573      -0.01428864      -0.00507234
2
Properties=species:S:1:pos:R:3:quaternions:R:4:old_torques:R:3:torques:R:3:c_diameter[1]:R:1:c_diameter[2]:R:1:c_diameter[3]:R:1:forces:R:3:energies:R:1 separation_distance=2.928905291908057 old_energy=-0.379713492841417 distance=2.9289052946666563 gb_cutoff=5.0 gb_epsilon=1.0 gb_sigma=1.0 energy=-0.006320068419694536 pbc="F F F"
X       10.00000000      10.00000000      10.00000000       0.13554811       0.25054095      -0.71939127      -0.63350781       0.04881987       0.25193814      -0.08795816      -0.00245525       0.00456156       0.00219459       1.00000000       1.50000000       2.00000000       0.02095138       0.01242661       0.01591971      -0.00632007
X       11.96200989      11.07293218      11.89151261       0.01395937      -0.58524969       0.66981846      -0.45676160       0.21954093      -0.07786797       0.13687180      -0.00396907       0.00383361      -0.00029287       1.00000000       1.50000000       2.00000000      -0.02095138      -0.01242661      -0.01591971      -0.00632007
2
Properties=species:S:1:pos:R:3:quaternions:R:4:old_torques:R:3:torques:R:3:c_diameter[1]:R:1:c_diameter[2]:R:1:c_diameter[3]:R:1:forces:R:3:energies:R:1 separation_distance=2.4656336159275534 old_energy=-0.7585289223060651 distance=2.465633614635784 gb_cutoff=5.0 gb_epsilon=1.0 gb_sigma=1.0 energy=-0.15058791316848363 pbc="F F F"
X       10.00000000      10.00000000      10.00000000       0.83853359      -0.21347062       0.03490535      -0.50007332       0.18128062      -1.05317099       0.31965749      -0.36250042       0.03889804       0.14406460       1.00000000       1.50000000       2.00000000       0.39978522       0.83429021       0.62601408      -0.15058791
X       11.02355710      11.36458924      11.78033036       0.36797710       0.54451621      -0.75291475       0.03484715      -0.03399054       0.44101574       0.34375429      -0.26855969       0.03209057       0.16433646       1.00000000       1.50000000       2.00000000      -0.39978522      -0.83429021      -0.62601408      -0.15058791
2
Properties=species:S:1:pos:R:3:quaternions:R:4:old_torques:R:3:torques:R:3:c_diameter[1]:R:1:c_diameter[2]:R:1:c_diameter[3]:R:1:forces:R:3:energies:R:1 separation_distance=2.9091806023529667 old_energy=-0.40843704652030954 distance=2.9091806056439693 gb_cutoff=5.0 gb_epsilon=1.0 gb_sigma=1.0 energy=-0.007026181207739693 pbc="F F F"
X       10.00000000      10.00000000      10.00000000       0.14657128      -0.21426341       0.47975324       0.83811985       0.08086830       0.28403361      -0.49008384       0.00649420       0.00557925      -0.01130304       1.00000000       1.50000000       2.00000000       0.02161281       0.01573003       0.01946425      -0.00702618
X       11.82125680      11.44370551      11.74987710       0.44772612       0.38587084      -0.49158914      -0.63951945      -0.38475237       0.85089323       0.52339101      -0.00591917      -0.00320888       0.00874892       1.00000000       1.50000000       2.00000000      -0.02161281      -0.01573003      -0.01946425      -0.00702618
2
Properties=species:S:1:pos:R:3:quaternions:R:4:old_torques:R:3:torques:R:3:c_diameter[1]:R:1:c_diameter[2]:R:1:c_diameter[3]:R:1:forces:R:3:energies:R:1 separation_distance=2.9933445846375286 old_energy=-0.4724824357241502 distance=2.9933445826957104 gb_cutoff=5.0 gb_epsilon=1.0 gb_sigma=1.0 energy=-0.00592801396471312 pbc="F F F"
X       10.00000000      10.00000000      10.00000000       0.39284131      -0.85069645      -0.31204695      -0.15690108       0.52897752      -1.19452270      -3.15268455      -0.00178342       0.00268778      -0.00094922       1.00000000       1.50000000       2.00000000       0.01610480       0.01234813       0.01764836      -0.00592801
X       11.79299418      11.47071234      11.89269355       0.58190922      -0.72270650       0.36988038      -0.04759709      -0.07685001     -12.10491540       0.01938683       0.00436787      -0.00384973      -0.00059619       1.00000000       1.50000000       2.00000000      -0.01610480      -0.01234813      -0.01764836      -0.00592801
2
Properties=species:S:1:pos:R:3:quaternions:R:4:old_torques:R:3:torques:R:3:c_diameter[1]:R:1:c_diameter[2]:R:1:c_diameter[3]:R:1:forces:R:3:energies:R:1 separation_distance=3.0607811978893666 old_energy=-0.5030632728956766 distance=3.0607811979569077 gb_cutoff=5.0 gb_epsilon=1.0 gb_sigma=1.0 energy=-0.004723463678504414 pbc="F F F"
X       10.00000000      10.00000000      10.00000000       0.90786162      -0.35841803      -0.17436528       0.13007901       0.30682384      -0.24050032       0.19291796      -0.00047967       0.00658574      -0.00455227       1.00000000       1.50000000       2.00000000       0.01315490       0.00991031       0.01280042      -0.00472346
X       11.94960306      11.35366581      11.93261955       0.38424202       0.56558414      -0.30307344      -0.66379149      -0.14416746       0.05787387       0.30126348      -0.00134569      -0.00611806       0.00606609       1.00000000       1.50000000       2.00000000      -0.01315490      -0.00991031      -0.01280042      -0.00472346
2
Properties=species:S:1:pos:R:3:quaternions:R:4:old_torques:R:3:torques:R:3:c_diameter[1]:R:1:c_diameter[2]:R:1:c_diameter[3]:R:1:forces:R:3:energies:R:1 separation_distance=2.8084198438351673 old_energy=-0.6205536032148545 distance=2.8084198498223496 gb_cutoff=5.0 gb_epsilon=1.0 gb_sigma=1.0 energy=-0.013791868558052927 pbc="F F F"
X       10.00000000      10.00000000      10.00000000       0.04064029      -0.18791084      -0.54478277       0.81624115       0.20032376      -0.13663877       0.12336242       0.01471041       0.00288509      -0.01116093       1.00000000       1.50000000       2.00000000       0.03031706       0.03772587       0.05517311      -0.01379187
X       11.29019043      11.72606110      11.80092859       0.22018061      -0.67018621       0.13386836      -0.69602457      -0.08756986      -0.17035696      -0.07109487       0.01258014      -0.01947005       0.00750539       1.00000000       1.50000000       2.00000000      -0.03031706      -0.03772587      -0.05517311      -0.01379187
2
Properties=species:S:1:pos:R:3:quaternions:R:4:old_torques:R:3:torques:R:3:c_diameter[1]:R:1:c_diameter[2]:R:1:c_diameter[3]:R:1:forces:R:3:energies:R:1 separation_distance=3.09429488712571 old_energy=-0.6537780738151161 distance=3.0942948854757635 gb_cutoff=5.0 gb_epsilon=1.0 gb_sigma=1.0 energy=-0.01674123784152261 pbc="F F F"
X       10.00000000      10.00000000      10.00000000       0.03840564      -0.69454503      -0.29257864       0.65614781       0.34697745      -0.54746813       0.13623849       0.01976240      -0.03191767       0.00383051       1.00000000       1.50000000       2.00000000       0.04595473       0.04317394       0.06584786      -0.01674124
X       11.85601779      11.70332383      11.79681572       0.33882254       0.15093671      -0.86844812       0.32896088       0.04634494      -0.31289800       0.12876746       0.01482222      -0.00772495      -0.00197470       1.00000000       1.50000000       2.00000000      -0.04595473      -0.04317394      -0.06584786      -0.01674124
2
Properties=species:S:1:pos:R:3:quaternions:R:4:old_torques:R:3:torques:R:3:c_diameter[1]:R:1:c_diameter[2]:R:1:c_diameter[3]:R:1:forces:R:3:energies:R:1 separation_distance=3.041238771572378 old_energy=-0.30340442272401086 distance=3.041238771179271 gb_cutoff=5.0 gb_epsilon=1.0 gb_sigma=1.0 energy=-0.005907745992049285 pbc="F F F"
X       10.00000000      10.00000000      10.00000000       0.14997457       0.45647367       0.87516749       0.05675638      -0.42867704       0.59730695       0.38200658      -0.00340401       0.00463242      -0.00070361       1.00000000       1.50000000       2.00000000       0.01465926       0.01543263       0.01641884      -0.00590775
X       11.69936206      11.77899466      11.78787020       0.13151888      -0.78910516      -0.36030217      -0.47978973      -0.03597763      -0.28881341      -0.11276873       0.00502151      -0.00632512       0.00085049       1.00000000       1.50000000       2.00000000      -0.01465926      -0.01543263      -0.01641884      -0.00590775
2
Properties=species:S:1:pos:R:3:quaternions:R:4:old_torques:R:3:torques:R:3:c_diameter[1]:R:1:c_diameter[2]:R:1:c_diameter[3]:R:1:forces:R:3:energies:R:1 separation_distance=2.921334148277057 old_energy=-0.7142748222447218 distance=2.921334148321637 gb_cutoff=5.0 gb_epsilon=1.0 gb_sigma=1.0 energy=-0.012291085657054904 pbc="F F F"
X       10.00000000      10.00000000      10.00000000       0.49069442       0.33791230      -0.75085258       0.28505204      -0.01336274       0.05011878      -0.10749345       0.02412728      -0.01660438       0.00967744       1.00000000       1.50000000       2.00000000       0.01361637       0.04123008       0.04783189      -0.01229109
X       11.20872129      11.93894496      11.82035120       0.29009730       0.53815081       0.38219261       0.69294016       0.05735114       1.62452480      -0.03734451      -0.00643709      -0.01642448       0.01375684       1.00000000       1.50000000       2.00000000      -0.01361637      -0.04123008      -0.04783189      -0.01229109
2
Properties=species:S:1:pos:R:3:quaternions:R:4:old_torques:R:3:torques:R:3:c_diameter[1]:R:1:c_diameter[2]:R:1:c_diameter[3]:R:1:forces:R:3:energies:R:1 separation_distance=2.7189281422969676 old_energy=-0.660466057521357 distance=2.718928144490603 gb_cutoff=5.0 gb_epsilon=1.0 gb_sigma=1.0 energy=-0.016716958460155817 pbc="F F F"
X       10.00000000      10.00000000      10.00000000       0.45581810       0.30200428      -0.83471515      -0.06537504       0.32121438       1.10637721      -0.45036311      -0.02814527       0.00383219       0.01947507       1.00000000       1.50000000       2.00000000       0.04272126       0.07414969       0.03327028      -0.01671696
X       11.59939733      11.88388504      11.13378816       0.59759035       0.08600801      -0.20526441       0.77029534       0.00832321       1.26384403       0.00530495       0.00675260      -0.00860772       0.01863780       1.00000000       1.50000000       2.00000000      -0.04272126      -0.07414969      -0.03327028      -0.01671696
2
Properties=species:S:1:pos:R:3:quaternions:R:4:old_torques:R:3:torques:R:3:c_diameter[1]:R:1:c_diameter[2]:R:1:c_diameter[3]:R:1:forces:R:3:energies:R:1 separation_distance=2.5854628542142826 old_energy=-0.6359746453111987 distance=2.5854628546940535 gb_cutoff=5.0 gb_epsilon=1.0 gb_sigma=1.0 energy=-0.040010784496293195 pbc="F F F"
X       10.00000000      10.00000000      10.00000000       0.87480650      -0.22041372       0.37385215      -0.21532753       0.04231086       0.06794731      -0.37266998      -0.02157759      -0.07687089       0.07970812       1.00000000       1.50000000       2.00000000       0.10135745       0.14443257       0.18201946      -0.04001078
X       11.62953650      11.20529088      11.60514886       0.48685551      -0.27029934      -0.79842908      -0.22895629      -1.25311973      -1.50990808       2.14845198       0.00912821      -0.05704267       0.03348481       1.00000000       1.50000000       2.00000000      -0.10135745      -0.14443257      -0.18201946      -0.04001078
2
Properties=species:S:1:pos:R:3:quaternions:R:4:old_torques:R:3:torques:R:3:c_diameter[1]:R:1:c_diameter[2]:R:1:c_diameter[3]:R:1:forces:R:3:energies:R:1 separation_distance=2.949164153572108 old_energy=-0.21906347578454313 distance=2.9491641508244046 gb_cutoff=5.0 gb_epsilon=1.0 gb_sigma=1.0 energy=-0.008920426439680332 pbc="F F F"
X       10.00000000      10.00000000      10.00000000       0.70247133       0.03183420      -0.63216520       0.32540402       0.01792785       0.05336294      -0.15992518       0.00557416      -0.01208565       0.00448875       1.00000000       1.50000000       2.00000000       0.01700025       0.02381860       0.03345947      -0.00892043
X       11.50696698      11.93359067      11.63946541       0.65372222       0.42570440      -0.61211807       0.12936186      -0.08102536       0.58542886       0.13051371       0.02007298      -0.01046534      -0.00146642       1.00000000       1.50000000       2.00000000      -0.01700025      -0.02381860      -0.03345947      -0.00892043
2
Properties=species:S:1:pos:R:3:quaternions:R:4:old_torques:R:3:torques:R:3:c_diameter[1]:R:1:c_diameter[2]:R:1:c_diameter[3]:R:1:forces:R:3:energies:R:1 separation_distance=2.764188535522863 old_energy=-0.6448423028667961 distance=2.7641885341412515 gb_cutoff=5.0 gb_epsilon=1.0 gb_sigma=1.0 energy=-0.022265652148328558 pbc="F F F"
X       10.00000000      10.00000000      10.00000000       0.73737562      -0.23157791       0.47653903       0.41899810      -0.32788052      -0.08707659      -0.20448369       0.03037170      -0.01275829      -0.01710962       1.00000000       1.50000000       2.00000000       0.07792619       0.06351673       0.07821885      -0.02226565
X       11.54396341      11.81263262      11.40402216       0.18727469      -0.41606920       0.29250267       0.84039086       0.00487337       0.17785834       0.12973255       0.02223144       0.00140135      -0.02607443       1.00000000       1.50000000       2.00000000      -0.07792619      -0.06351673      -0.07821885      -0.02226565
2
Properties=species:S:1:pos:R:3:quaternions:R:4:old_torques:R:3:torques:R:3:c_diameter[1]:R:1:c_diameter[2]:R:1:c_diameter[3]:R:1:forces:R:3:energies:R:1 separation_distance=2.920527586469453 old_energy=-0.5487064075148038 distance=2.9205275893434037 gb_cutoff=5.0 gb_epsilon=1.0 gb_sigma=1.0 energy=-0.005589939506305175 pbc="F F F"
X       10.00000000      10.00000000      10.00000000       0.31269935       0.33894323      -0.32411354      -0.82600667      -0.42310265       0.65017746       0.44499320      -0.00246666       0.00200541       0.00057915       1.00000000       1.50000000       2.00000000       0.01388171       0.01443975       0.01557852      -0.00558994
X       11.41596303      11.70773328      11.89952024       0.09755980       0.07490660      -0.49345912       0.86102798      -0.11483070       0.28962787       0.46498146       0.00164201       0.00230457      -0.00383926       1.00000000       1.50000000       2.00000000      -0.01388171      -0.01443975      -0.01557852      -0.00558994
2
Properties=species:S:1:pos:R:3:quaternions:R:4:old_torques:R:3:torques:R:3:c_diameter[1]:R:1:c_diameter[2]:R:1:c_diameter[3]:R:1:forces:R:3:energies:R:1 separation_distance=2.349812505576174 old_energy=-0.7712898450176735 distance=2.3498125042657674 gb_cutoff=5.0 gb_epsilon=1.0 gb_sigma=1.0 energy=-0.05354780071709819 pbc="F F F"
X       10.00000000      10.00000000      10.00000000       0.10600183      -0.53084106       0.13739112       0.82951495       0.13704910      -0.44994590       0.59214263       0.06344751       0.00040349      -0.04424695       1.00000000       1.50000000       2.00000000       0.15142109       0.25197789       0.18772145      -0.05354780
X       11.17925515      11.54166384      11.32448054       0.83474602      -0.22292833       0.22749191      -0.44916530       0.02897701      -0.43027899       0.04505361      -0.10778396      -0.02122069       0.10795275       1.00000000       1.50000000       2.00000000      -0.15142109      -0.25197789      -0.18772145      -0.05354780
2
Properties=species:S:1:pos:R:3:quaternions:R:4:old_torques:R:3:torques:R:3:c_diameter[1]:R:1:c_diameter[2]:R:1:c_diameter[3]:R:1:forces:R:3:energies:R:1 separation_distance=3.172906856770517 old_energy=-0.5600462164912874 distance=3.172906854987513 gb_cutoff=5.0 gb_epsilon=1.0 gb_sigma=1.0 energy=-0.006602633907904522 pbc="F F F"
X       10.00000000      10.00000000      10.00000000       0.27745203       0.07754175      -0.78467526      -0.54890107      -0.13899421      -1.31133103       0.79262771      -0.00210774       0.00533185      -0.00441145       1.00000000       1.50000000       2.00000000       0.01788704       0.01981951       0.01577358      -0.00660263
X       11.82797782      11.72449217      11.93699813       0.23314687      -0.62837834      -0.65053387       0.35719585       1.28701214       2.26603502       0.71575991      -0.00908121       0.00048156       0.00979502       1.00000000       1.50000000       2.00000000      -0.01788704      -0.01981951      -0.01577358      -0.00660263
2
Properties=species:S:1:pos:R:3:quaternions:R:4:old_torques:R:3:torques:R:3:c_diameter[1]:R:1:c_diameter[2]:R:1:c_diameter[3]:R:1:forces:R:3:energies:R:1 separation_distance=3.026641633087646 old_energy=-0.436501014792958 distance=3.02664163527129 gb_cutoff=5.0 gb_epsilon=1.0 gb_sigma=1.0 energy=-0.004993589596209858 pbc="F F F"
X       10.00000000      10.00000000      10.00000000       0.15234456      -0.86143275      -0.00211706      -0.48447937      -0.00677360       0.04227206      -0.50222176       0.00563812      -0.00321641      -0.00159796       1.00000000       1.50000000       2.00000000       0.01241098       0.01121501       0.01442252      -0.00499359
X       11.74512267      11.45690501      11.99813269       0.77333887      -0.01193155      -0.15468321       0.61471760       0.55341839       1.02558747      -0.39064578      -0.00703495       0.00284611       0.00308791       1.00000000       1.50000000       2.00000000      -0.01241098      -0.01121501      -0.01442252      -0.00499359
2
Properties=species:S:1:pos:R:3:quaternions:R:4:old_torques:R:3:torques:R:3:c_diameter[1]:R:1:c_diameter[2]:R:1:c_diameter[3]:R:1:forces:R:3:energies:R:1 separation_distance=2.4238228206741574 old_energy=-0.6830622188254315 distance=2.4238228164415605 gb_cutoff=5.0 gb_epsilon=1.0 gb_sigma=1.0 energy=-0.047677215738785306 pbc="F F F"
X       10.00000000      10.00000000      10.00000000       0.36966417       0.25088897      -0.85801762      -0.25339474      -0.01254532      -0.13797624      -0.35627135      -0.06745584      -0.00349122       0.02775713       1.00000000       1.50000000       2.00000000       0.08208873       0.21890539       0.20328383      -0.04767722
X       11.15055095      11.36270470      11.64139741       0.79894195      -0.25950202       0.46717704      -0.27585517      -0.04306039       0.96018824       0.11462694      -0.01483908      -0.09565695       0.11224197       1.00000000       1.50000000       2.00000000      -0.08208873      -0.21890539      -0.20328383      -0.04767722
2
Properties=species:S:1:pos:R:3:quaternions:R:4:old_torques:R:3:torques:R:3:c_diameter[1]:R:1:c_diameter[2]:R:1:c_diameter[3]:R:1:forces:R:3:energies:R:1 separation_distance=2.851110365044353 old_energy=-0.7255750197098249 distance=2.8511103625591616 gb_cutoff=5.0 gb_epsilon=1.0 gb_sigma=1.0 energy=-0.008722076080251153 pbc="F F F"
X       10.00000000      10.00000000      10.00000000       0.63499841       0.27671580       0.67511905      -0.25381026      -0.06423221      -0.40947853       0.03627132       0.00390741      -0.00865059       0.00269909       1.00000000       1.50000000       2.00000000       0.02784003       0.01858090       0.02668940      -0.00872208
X       11.73994341      11.36582536      11.79887418       0.20089525      -0.13335733       0.00164526       0.97049174      -0.14787535       0.02901804       0.10297384      -0.00087905       0.01229325      -0.00839399       1.00000000       1.50000000       2.00000000      -0.02784003      -0.01858090      -0.02668940      -0.00872208
2
Properties=species:S:1:pos:R:3:quaternions:R:4:old_torques:R:3:torques:R:3:c_diameter[1]:R:1:c_diameter[2]:R:1:c_diameter[3]:R:1:forces:R:3:energies:R:1 separation_distance=2.785397397198484 old_energy=-0.5652204368504797 distance=2.7853973964644734 gb_cutoff=5.0 gb_epsilon=1.0 gb_sigma=1.0 energy=-0.018160822086517356 pbc="F F F"
X       10.00000000      10.00000000      10.00000000       0.79636395      -0.52379290       0.03393466      -0.30048943      -0.02629791       0.17692918       0.27462328       0.03351093       0.01676787      -0.04038600       1.00000000       1.50000000       2.00000000       0.06691957       0.03376224       0.06911931      -0.01816082
X       11.36829348      11.58768019      11.83452534       0.20817212       0.04444329       0.86993715       0.44485787      -0.11739838      -0.09571351      -0.56571822       0.01429075       0.01142227      -0.01966422       1.00000000       1.50000000       2.00000000      -0.06691957      -0.03376224      -0.06911931      -0.01816082
2
Properties=species:S:1:pos:R:3:quaternions:R:4:old_torques:R:3:torques:R:3:c_diameter[1]:R:1:c_diameter[2]:R:1:c_diameter[3]:R:1:forces:R:3:energies:R:1 separation_distance=2.671931874468614 old_energy=-0.292618381155451 distance=2.671931871951118 gb_cutoff=5.0 gb_epsilon=1.0 gb_sigma=1.0 energy=-0.012351623424336412 pbc="F F F"
X       10.00000000      10.00000000      10.00000000       0.41422823      -0.69594802      -0.24339957      -0.53369277       0.02668610      -0.25337721       0.21892643       0.02323155      -0.01502233      -0.01017404       1.00000000       1.50000000       2.00000000       0.03411686       0.02433689       0.04921822      -0.01235162
X       11.46730772      11.55016704      11.60723680       0.22571252      -0.52038906       0.00794948       0.82352043       0.04062779      -0.33715300       0.22367267       0.01394977      -0.00236207      -0.00700308       1.00000000       1.50000000       2.00000000      -0.03411686      -0.02433689      -0.04921822      -0.01235162
2
Properties=species:S:1:pos:R:3:quaternions:R:4:old_torques:R:3:torques:R:3:c_diameter[1]:R:1:c_diameter[2]:R:1:c_diameter[3]:R:1:forces:R:3:energies:R:1 separation_distance=2.835181718381794 old_energy=-0.18392799158947867 distance=2.835181717856061 gb_cutoff=5.0 gb_epsilon=1.0 gb_sigma=1.0 energy=-0.01747138445863734 pbc="F F F"
X       10.00000000      10.00000000      10.00000000       0.25573965       0.43274934      -0.85643146      -0.11768767       0.03250982      -0.17589978       0.11723272      -0.04027861       0.01876989       0.01859125       1.00000000       1.50000000       2.00000000       0.05608305       0.06507603       0.04579943      -0.01747138
X       11.97882526      11.35698284      11.51033226       0.51314281      -0.29216029      -0.53612383       0.60323964      -0.07037925      -0.21856278      -0.19563701       0.00414122      -0.02469492       0.03407910       1.00000000       1.50000000       2.00000000      -0.05608305      -0.06507603      -0.04579943      -0.01747138
2
Properties=species:S:1:pos:R:3:quaternions:R:4:old_torques:R:3:torques:R:3:c_diameter[1]:R:1:c_diameter[2]:R:1:c_diameter[3]:R:1:forces:R:3:energies:R:1 separation_distance=3.1304705300086098 old_energy=-0.07738268896675644 distance=3.1304705300004514 gb_cutoff=5.0 gb_epsilon=1.0 gb_sigma=1.0 energy=-0.00588392424043749 pbc="F F F"
X       10.00000000      10.00000000      10.00000000       0.80098666       0.06557738       0.53552635      -0.25948313      -0.00940308       0.07628870       0.05040737      -0.00160080      -0.00903693       0.00628769       1.00000000       1.50000000       2.00000000       0.01138891       0.01479617       0.01989386      -0.00588392
X       11.73166127      11.90819770      11.77763228       0.47758041      -0.61940629      -0.30339598      -0.54424597       0.01503923      -0.08699002       0.06015961       0.01326007      -0.00516721      -0.00239803       1.00000000       1.50000000       2.00000000      -0.01138891      -0.01479617      -0.01989386      -0.00588392
2
Properties=species:S:1:pos:R:3:quaternions:R:4:old_torques:R:3:torques:R:3:c_diameter[1]:R:1:c_diameter[2]:R:1:c_diameter[3]:R:1:forces:R:3:energies:R:1 separation_distance=3.2380894635559883 old_energy=-0.20463579459896572 distance=3.2380894671798597 gb_cutoff=5.0 gb_epsilon=1.0 gb_sigma=1.0 energy=-0.006423664998824705 pbc="F F F"
X       10.00000000      10.00000000      10.00000000       0.64054426      -0.28381900       0.14299613       0.69907219       0.01875973       0.01836894      -0.26091217       0.00366371       0.00633315      -0.00421658       1.00000000       1.50000000       2.00000000       0.02014329       0.01132258       0.01895374      -0.00642366
X       11.98770643      11.71552228      11.89505405       0.37232175       0.17654466       0.79608040       0.44324316       0.08431671       0.00428176       0.01214201       0.00739494      -0.00583500      -0.00783371       1.00000000       1.50000000       2.00000000      -0.02014329      -0.01132258      -0.01895374      -0.00642366
2
Properties=species:S:1:pos:R:3:quaternions:R:4:old_torques:R:3:torques:R:3:c_diameter[1]:R:1:c_diameter[2]:R:1:c_diameter[3]:R:1:forces:R:3:energies:R:1 separation_distance=2.875007729211833 old_energy=-0.5527652507517227 distance=2.8750077322418752 gb_cutoff=5.0 gb_epsilon=1.0 gb_sigma=1.0 energy=-0.014797592549611495 pbc="F F F"
X       10.00000000      10.00000000      10.00000000       0.82118990       0.13065846      -0.38193007       0.40336701       0.47419021       1.18992346      -0.56307038       0.01595422      -0.01716110       0.00217316       1.00000000       1.50000000       2.00000000       0.04770727       0.05247717       0.03562964      -0.01479759
X       11.80624746      11.98988468      11.02151776       0.48150056       0.47384994      -0.71895114       0.16350139       0.00606025       0.68796734      -0.06486303       0.00133830       0.00153897      -0.00231837       1.00000000       1.50000000       2.00000000      -0.04770727      -0.05247717      -0.03562964      -0.01479759
2
Properties=species:S:1:pos:R:3:quaternions:R:4:old_torques:R:3:torques:R:3:c_diameter[1]:R:1:c_diameter[2]:R:1:c_diameter[3]:R:1:forces:R:3:energies:R:1 separation_distance=3.008759950124493 old_energy=-0.30365889685727154 distance=3.008759943897084 gb_cutoff=5.0 gb_epsilon=1.0 gb_sigma=1.0 energy=-0.006043516430114601 pbc="F F F"
X       10.00000000      10.00000000      10.00000000       0.34170204       0.93534314      -0.06928822       0.05976671       0.12497892       0.25168948      -0.42407201       0.00055450       0.00866885      -0.00977410       1.00000000       1.50000000       2.00000000       0.01874701       0.01421663       0.01491797      -0.00604352
X       11.90000369      11.53031448      11.76089749       0.36761626       0.43391013      -0.39932846      -0.71910852      -0.18535513       0.29544053       0.42140162      -0.00275934      -0.00400147       0.00809691       1.00000000       1.50000000       2.00000000      -0.01874701      -0.01421663      -0.01491797      -0.00604352
2
Properties=species:S:1:pos:R:3:quaternions:R:4:old_torques:R:3:torques:R:3:c_diameter[1]:R:1:c_diameter[2]:R:1:c_diameter[3]:R:1:forces:R:3:energies:R:1 separation_distance=2.5963463842718864 old_energy=-0.7328500675840496 distance=2.5963463826468973 gb_cutoff=5.0 gb_epsilon=1.0 gb_sigma=1.0 energy=-0.021868266414293753 pbc="F F F"
X       10.00000000      10.00000000      10.00000000       0.26228478      -0.74199324      -0.55813919      -0.26293225      -0.01878908      -0.00497313      -0.04284644      -0.00383423      -0.01266975       0.01449024       1.00000000       1.50000000       2.00000000       0.07084861       0.07093186       0.07340700      -0.02186827
X       11.30654895      11.72264589      11.43751018       0.80243109      -0.56882931       0.01839827      -0.17944100      -0.10746546      -0.03357104      -0.02546531       0.02832323       0.01860552      -0.04386137       1.00000000       1.50000000       2.00000000      -0.07084861      -0.07093186      -0.07340700      -0.02186827
2
Properties=species:S:1:pos:R:3:quaternions:R:4:old_torques:R:3:torques:R:3:c_diameter[1]:R:1:c_diameter[2]:R:1:c_diameter[3]:R:1:forces:R:3:energies:R:1 separation_distance=2.945713152885051 old_energy=-0.6016434995688097 distance=2.9457131536632164 gb_cutoff=5.0 gb_epsilon=1.0 gb_sigma=1.0 energy=-0.012729987768089968 pbc="F F F"
X       10.00000000      10.00000000      10.00000000       0.39245191      -0.82950184       0.27711540      -0.28480739       0.21901964       0.78255467      -0.26539418       0.00548267      -0.00918665       0.00145949       1.00000000       1.50000000       2.00000000       0.02923221       0.04505800       0.03906580      -0.01272999
X       11.61180004      11.85501700      11.62426554       0.76028847       0.18323940       0.55410051       0.28523218      -0.10494117       0.19319400       0.52423718      -0.00620109      -0.00629874       0.01693874       1.00000000       1.50000000       2.00000000      -0.02923221      -0.04505800      -0.03906580      -0.01272999
2
Properties=species:S:1:pos:R:3:quaternions:R:4:old_torques:R:3:torques:R:3:c_diameter[1]:R:1:c_diameter[2]:R:1:c_diameter[3]:R:1:forces:R:3:energies:R:1 separation_distance=2.7587629302978462 old_energy=-0.6992313080364102 distance=2.758762932855537 gb_cutoff=5.0 gb_epsilon=1.0 gb_sigma=1.0 energy=-0.021670535753364552 pbc="F F F"
X       10.00000000      10.00000000      10.00000000       0.05042797       0.94185773       0.32695203      -0.05885076       0.13230907      -0.46077016       0.02710830      -0.04105166       0.04186331      -0.00575560       1.00000000       1.50000000       2.00000000       0.07838489       0.08370463       0.05409439      -0.02167054
X       11.24178627      11.58655741      11.88456238       0.19215854       0.59465739      -0.72539919       0.28853717       0.06116294      -0.01198983      -0.09477261      -0.03087108       0.03868424      -0.01466327       1.00000000       1.50000000       2.00000000      -0.07838489      -0.08370463      -0.05409439      -0.02167054
2
Properties=species:S:1:pos:R:3:quaternions:R:4:old_torques:R:3:torques:R:3:c_diameter[1]:R:1:c_diameter[2]:R:1:c_diameter[3]:R:1:forces:R:3:energies:R:1 separation_distance=2.4886953448690154 old_energy=-0.739892741711667 distance=2.4886953410371393 gb_cutoff=5.0 gb_epsilon=1.0 gb_sigma=1.0 energy=-0.02362152151199673 pbc="F F F"
X       10.00000000      10.00000000      10.00000000       0.81159936       0.22052280       0.41535420      -0.34663677      -0.05727678      -0.19202058      -0.46325517       0.00405720      -0.02280524       0.02003033       1.00000000       1.50000000       2.00000000       0.05207668       0.09291575       0.08521173      -0.02362152
X       11.16227871      11.71704512      11.37639702       0.20933413      -0.41329393      -0.26326744       0.84620187       0.26911122      -1.07369319       0.55379148       0.01436622      -0.00455635      -0.00145435       1.00000000       1.50000000       2.00000000      -0.05207668      -0.09291575      -0.08521173      -0.02362152
2
Properties=species:S:1:pos:R:3:quaternions:R:4:old_torques:R:3:torques:R:3:c_diameter[1]:R:1:c_diameter[2]:R:1:c_diameter[3]:R:1:forces:R:3:energies:R:1 separation_distance=2.9955794611158093 old_energy=-0.16735803998597343 distance=2.9955794551488455 gb_cutoff=5.0 gb_epsilon=1.0 gb_sigma=1.0 energy=-0.005595993413772636 pbc="F F F"
X       10.00000000      10.00000000      10.00000000       0.69786959      -0.63296009      -0.31129690      -0.12423289      -0.02751341       0.10087705       0.17276155       0.00366019      -0.00015740      -0.00649471       1.00000000       1.50000000       2.00000000       0.01752918       0.01431446       0.01170468      -0.00559599
X       11.82888615      11.92963052      11.38028902       0.91496380       0.14445134      -0.04087430      -0.37457223      -0.02113979      -0.35245253      -0.06202945      -0.00083257       0.00294620      -0.00115061       1.00000000       1.50000000       2.00000000      -0.01752918      -0.01431446      -0.01170468      -0.00559599
2
Properties=species:S:1:pos:R:3:quaternions:R:4:old_torques:R:3:torques:R:3:c_diameter[1]:R:1:c_diameter[2]:R:1:c_diameter[3]:R:1:forces:R:3:energies:R:1 separation_distance=3.215506332794478 old_energy=-0.38886137693534983 distance=3.2155063330263123 gb_cutoff=5.0 gb_epsilon=1.0 gb_sigma=1.0 energy=-0.0038287496651099886 pbc="F F F"
X       10.00000000      10.00000000      10.00000000       0.19864118      -0.05961680      -0.73177803      -0.64922140      -1.66570277      -4.59063597       2.35491290       0.00046550       0.00350671      -0.00348603       1.00000000       1.50000000       2.00000000       0.01083165       0.00868243       0.00830346      -0.00382875
X       11.87049346      11.71606043      11.97379629       0.59671804      -0.71280110      -0.20370781       0.30715681       3.22767367      -0.19723891      -0.24437160      -0.00335362       0.00234120       0.00113869       1.00000000       1.50000000       2.00000000      -0.01083165      -0.00868243      -0.00830346      -0.00382875
2
Properties=species:S:1:pos:R:3:quaternions:R:4:old_torques:R:3:torques:R:3:c_diameter[1]:R:1:c_diameter[2]:R:1:c_diameter[3]:R:1:forces:R:3:energies:R:1 separation_distance=2.9478588657175253 old_energy=-0.27948692317051377 distance=2.9478588634669274 gb_cutoff=5.0 gb_epsilon=1.0 gb_sigma=1.0 energy=-0.010333226826239595 pbc="F F F"
X       10.00000000      10.00000000      10.00000000       0.35043372       0.85544475       0.36313030      -0.11639101       0.01854604       0.31971516      -0.03408039      -0.00522245       0.01934956      -0.00822420       1.00000000       1.50000000       2.00000000       0.03918534       0.02451546       0.02478475      -0.01033323
X       11.84861067      11.46086025      11.77155237       0.90289032       0.13469898      -0.04615616      -0.40560431      -0.10189909      -0.87380929      -0.14224258      -0.00200093       0.00425197      -0.00370056       1.00000000       1.50000000       2.00000000      -0.03918534      -0.02451546      -0.02478475      -0.01033323
2
Properties=species:S:1:pos:R:3:quaternions:R:4:old_torques:R:3:torques:R:3:c_diameter[1]:R:1:c_diameter[2]:R:1:c_diameter[3]:R:1:forces:R:3:energies:R:1 separation_distance=2.7092143207652457 old_energy=-0.4143968556713681 distance=2.709214324225783 gb_cutoff=5.0 gb_epsilon=1.0 gb_sigma=1.0 energy=-0.006883220524488821 pbc="F F F"
X       10.00000000      10.00000000      10.00000000       0.10858830      -0.66661243      -0.59787107      -0.43172518       0.22761027      -0.63328649       0.52583376       0.00165346      -0.00641388       0.00456225       1.00000000       1.50000000       2.00000000       0.01514275       0.01840867       0.02086164      -0.00688322
X       11.48483966      11.48519090      11.71152021       0.15411401      -0.83251544      -0.44628976      -0.28981437      -0.07563761       0.63659682       0.18868221      -0.00217676       0.00135482       0.00028180       1.00000000       1.50000000       2.00000000      -0.01514275      -0.01840867      -0.02086164      -0.00688322
2
Properties=species:S:1:pos:R:3:quaternions:R:4:old_torques:R:3:torques:R:3:c_diameter[1]:R:1:c_diameter[2]:R:1:c_diameter[3]:R:1:forces:R:3:energies:R:1 separation_distance=2.822987504086729 old_energy=-0.5114713079069577 distance=2.822987506318109 gb_cutoff=5.0 gb_epsilon=1.0 gb_sigma=1.0 energy=-0.01615177792471711 pbc="F F F"
X       10.00000000      10.00000000      10.00000000       0.25059289       0.62370513      -0.55570378      -0.48927336      -0.22244259       0.69413073       0.53863191      -0.01586083      -0.00707161       0.03330847       1.00000000       1.50000000       2.00000000       0.05222902       0.05674946       0.04162054      -0.01615178
X       11.70351064      11.56145116      11.62147471       0.39317165       0.73691545       0.50557073      -0.21626351       0.30472150       1.23245635      -0.38278264      -0.01116855       0.02085861      -0.01818822       1.00000000       1.50000000       2.00000000      -0.05222902      -0.05674946      -0.04162054      -0.01615178
2
Properties=species:S:1:pos:R:3:quaternions:R:4:old_torques:R:3:torques:R:3:c_diameter[1]:R:1:c_diameter[2]:R:1:c_diameter[3]:R:1:forces:R:3:energies:R:1 separation_distance=2.665377420746537 old_energy=-0.5998455179966321 distance=2.6653774203175487 gb_cutoff=5.0 gb_epsilon=1.0 gb_sigma=1.0 energy=-0.010684549631404472 pbc="F F F"
X       10.00000000      10.00000000      10.00000000       0.24663684       0.21654483      -0.87948141      -0.34466079       0.05302563       0.71407764      -0.24957505      -0.01276007       0.00876703       0.00175042       1.00000000       1.50000000       2.00000000       0.03221143       0.03756267       0.02127021      -0.01068455
X       11.42556486      11.91524253      11.18484078       0.03081715       0.20394262       0.16944423      -0.96371488      -0.04373479       0.16502991       0.77343705       0.00899190      -0.00092368      -0.00989511       1.00000000       1.50000000       2.00000000      -0.03221143      -0.03756267      -0.02127021      -0.01068455
2
Properties=species:S:1:pos:R:3:quaternions:R:4:old_torques:R:3:torques:R:3:c_diameter[1]:R:1:c_diameter[2]:R:1:c_diameter[3]:R:1:forces:R:3:energies:R:1 separation_distance=2.8198987004556417 old_energy=-0.2649936186157796 distance=2.819898703027564 gb_cutoff=5.0 gb_epsilon=1.0 gb_sigma=1.0 energy=-0.0264931475913945 pbc="F F F"
X       10.00000000      10.00000000      10.00000000       0.89594781      -0.34013268       0.28320263       0.03719612       0.87190846      -2.04773133      -4.55311719       0.01473633       0.02318641      -0.02551050       1.00000000       1.50000000       2.00000000       0.10691735       0.05852491       0.09755924      -0.02649315
X       11.59506572      11.47825073      11.79509577       0.22942818       0.78476304      -0.47048493       0.33189398       0.32059166       0.10415523       1.03092015       0.02442287       0.01312706      -0.03918907       1.00000000       1.50000000       2.00000000      -0.10691735      -0.05852491      -0.09755924      -0.02649315
2
Properties=species:S:1:pos:R:3:quaternions:R:4:old_torques:R:3:torques:R:3:c_diameter[1]:R:1:c_diameter[2]:R:1:c_diameter[3]:R:1:forces:R:3:energies:R:1 separation_distance=2.576250855478604 old_energy=-0.6754571334166826 distance=2.5762508529196815 gb_cutoff=5.0 gb_epsilon=1.0 gb_sigma=1.0 energy=-0.013456503932476615 pbc="F F F"
X       10.00000000      10.00000000      10.00000000       0.45865363       0.79611668       0.26509177       0.29250886      -0.28679691      -0.79027614      -0.63792565      -0.00962281       0.01587001      -0.00809567       1.00000000       1.50000000       2.00000000       0.03234899       0.04014150       0.04689412      -0.01345650
X       11.06676894      11.56880092      11.74296763       0.67073070       0.30302608       0.62843168      -0.25173227       0.12818475       0.99045882      -0.32420366       0.01322502      -0.00951195       0.00016825       1.00000000       1.50000000       2.00000000      -0.03234899      -0.04014150      -0.04689412      -0.01345650
2
Properties=species:S:1:pos:R:3:quaternions:R:4:old_torques:R:3:torques:R:3:c_diameter[1]:R:1:c_diameter[2]:R:1:c_diameter[3]:R:1:forces:R:3:energies:R:1 separation_distance=2.7492475179686875 old_energy=-0.5781399632101957 distance=2.7492475172417805 gb_cutoff=5.0 gb_epsilon=1.0 gb_sigma=1.0 energy=-0.010353153509705415 pbc="F F F"
X       10.00000000      10.00000000      10.00000000       0.02540243       0.58610868      -0.01010738      -0.80977106      -0.26565265       1.29245307      -1.56285342       0.01060804      -0.00850388      -0.00056603       1.00000000       1.50000000       2.00000000       0.02102194       0.03394821       0.03350972      -0.01035315
X       11.13413640      11.92162305      11.60607017       0.25823219      -0.00715886      -0.84789151      -0.46297395      -0.61347944      -0.88743925       1.73636099      -0.00073821       0.00426201      -0.00132831       1.00000000       1.50000000       2.00000000      -0.02102194      -0.03394821      -0.03350972      -0.01035315
2
Properties=species:S:1:pos:R:3:quaternions:R:4:old_torques:R:3:torques:R:3:c_diameter[1]:R:1:c_diameter[2]:R:1:c_diameter[3]:R:1:forces:R:3:energies:R:1 separation_distance=3.2162448495487848 old_energy=-0.5521947795000517 distance=3.216244841884399 gb_cutoff=5.0 gb_epsilon=1.0 gb_sigma=1.0 energy=-0.0023786404489481825 pbc="F F F"
X       10.00000000      10.00000000      10.00000000       0.54476265       0.72694183       0.24877368       0.33600727      -0.05614558       2.68503210      -0.00907298      -0.00047367       0.00085471      -0.00018037       1.00000000       1.50000000       2.00000000       0.00517089       0.00599886       0.00465610      -0.00237864
X       11.72673647      11.95340923      11.88329616       0.22496612      -0.48290029       0.77234869      -0.34594083      -1.98337085       0.09875658      -0.08891465      -0.00172869       0.00084376       0.00043795       1.00000000       1.50000000       2.00000000      -0.00517089      -0.00599886      -0.00465610      -0.00237864
2
Properties=species:S:1:pos:R:3:quaternions:R:4:old_torques:R:3:torques:R:3:c_diameter[1]:R:1:c_diameter[2]:R:1:c_diameter[3]:R:1:forces:R:3:energies:R:1 separation_distance=2.9434594019630613 old_energy=-0.2462929970512084 distance=2.9434593998036327 gb_cutoff=5.0 gb_epsilon=1.0 gb_sigma=1.0 energy=-0.005876051926138486 pbc="F F F"
X       10.00000000      10.00000000      10.00000000       0.22252088       0.66561417      -0.37877929      -0.60329801       0.00515656       0.01539869       0.20637544      -0.00447290      -0.00508911       0.00510673       1.00000000       1.50000000       2.00000000       0.01068183       0.01417163       0.02022597      -0.00587605
X       11.71038159      11.41140726      11.93558198       0.01082491      -0.67504021      -0.20236399      -0.70940281      -0.00816566      -0.74130174      -0.03071271       0.00558963      -0.00882945       0.00405574       1.00000000       1.50000000       2.00000000      -0.01068183      -0.01417163      -0.02022597      -0.00587605
2
Properties=species:S:1:pos:R:3:quaternions:R:4:old_torques:R:3:torques:R:3:c_diameter[1]:R:1:c_diameter[2]:R:1:c_diameter[3]:R:1:forces:R:3:energies:R:1 separation_distance=2.7943589757788008 old_energy=-0.5958309562182107 distance=2.7943589720434554 gb_cutoff=5.0 gb_epsilon=1.0 gb_sigma=1.0 energy=-0.012368155594936672 pbc="F F F"
X       10.00000000      10.00000000      10.00000000       0.56009549      -0.73578942       0.29127469      -0.24508371      -0.43381739      -4.44759914       0.88085106       0.01494118      -0.00394492      -0.01319815       1.00000000       1.50000000       2.00000000       0.04549482       0.01660652       0.04178188      -0.01236816
X       11.81425985      11.27463813      11.70064720       0.23816347       0.01322593       0.82480662       0.51263756       0.95382038       1.14864147       1.61419697       0.01007377       0.00551237      -0.01466274       1.00000000       1.50000000       2.00000000      -0.04549482      -0.01660652      -0.04178188      -0.01236816
2
Properties=species:S:1:pos:R:3:quaternions:R:4:old_torques:R:3:torques:R:3:c_diameter[1]:R:1:c_diameter[2]:R:1:c_diameter[3]:R:1:forces:R:3:energies:R:1 separation_distance=2.5173629824162265 old_energy=-0.8142589375847809 distance=2.517362982669222 gb_cutoff=5.0 gb_epsilon=1.0 gb_sigma=1.0 energy=-0.09743156697497014 pbc="F F F"
X       10.00000000      10.00000000      10.00000000       0.16016015       0.08522963      -0.79180564       0.58320534      -0.23028201       1.51542992      -1.26671329       0.07001168       0.11239616      -0.22585805       1.00000000       1.50000000       2.00000000       0.46093906       0.34778762       0.36590035      -0.09743157
X       11.43308691      11.64537169      11.25544028       0.74717189      -0.54816973       0.27841513      -0.25244631      -0.12362650      -3.88085197       0.23009327       0.09540380      -0.05808169      -0.03414814       1.00000000       1.50000000       2.00000000      -0.46093906      -0.34778762      -0.36590035      -0.09743157
2
Properties=species:S:1:pos:R:3:quaternions:R:4:old_torques:R:3:torques:R:3:c_diameter[1]:R:1:c_diameter[2]:R:1:c_diameter[3]:R:1:forces:R:3:energies:R:1 separation_distance=3.1461503389874004 old_energy=-0.07239761760393626 distance=3.1461503389827605 gb_cutoff=5.0 gb_epsilon=1.0 gb_sigma=1.0 energy=-0.0024312110957822684 pbc="F F F"
X       10.00000000      10.00000000      10.00000000       0.27148919       0.87341347       0.08582095       0.39506619      -0.01763058      -0.08745392      -0.04671602       0.00039703      -0.00013720      -0.00070758       1.00000000       1.50000000       2.00000000       0.00565672       0.00513003       0.00547229      -0.00243121
X       11.79416624      11.75303417      11.89897358       0.15328607       0.32264671      -0.59145490      -0.72289943       0.00268711       0.06528090      -0.02093385      -0.00054571       0.00106095      -0.00000471       1.00000000       1.50000000       2.00000000      -0.00565672      -0.00513003      -0.00547229      -0.00243121
2
Properties=species:S:1:pos:R:3:quaternions:R:4:old_torques:R:3:torques:R:3:c_diameter[1]:R:1:c_diameter[2]:R:1:c_diameter[3]:R:1:forces:R:3:energies:R:1 separation_distance=2.5067352987894282 old_energy=-0.5233724576017134 distance=2.5067352995442542 gb_cutoff=5.0 gb_epsilon=1.0 gb_sigma=1.0 energy=-0.029455696507933678 pbc="F F F"
X       10.00000000      10.00000000      10.00000000       0.22112361      -0.18391541       0.19469221       0.93774966      -0.05537622       0.52231131       0.16310219       0.01319413       0.03510550      -0.05193381       1.00000000       1.50000000       2.00000000       0.13539974       0.07776622       0.08661245      -0.02945570
X       11.49018591      11.50028989      11.34617906       0.69531518       0.63147771       0.23778725      -0.24744680      -0.01931327       0.02687130      -0.46563147       0.01206239       0.01809814      -0.03531892       1.00000000       1.50000000       2.00000000      -0.13539974      -0.07776622      -0.08661245      -0.02945570
2
Properties=species:S:1:pos:R:3:quaternions:R:4:old_torques:R:3:torques:R:3:c_diameter[1]:R:1:c_diameter[2]:R:1:c_diameter[3]:R:1:forces:R:3:energies:R:1 separation_distance=2.5146274761388736 old_energy=-0.6308714013543857 distance=2.5146274732138703 gb_cutoff=5.0 gb_epsilon=1.0 gb_sigma=1.0 energy=-0.015626898872281105 pbc="F F F"
X       10.00000000      10.00000000      10.00000000       0.55813187      -0.01949774       0.29594510      -0.77493558       0.24486965       0.73430806       2.91091974      -0.02331662       0.00505152       0.00561932       1.00000000       1.50000000       2.00000000       0.03121213       0.06137647       0.04828472      -0.01562690
X       11.19642280      11.77965995      11.31329139       0.73198564       0.12528051      -0.61563030       0.26363070      -0.36470290      -1.97715220       2.22424431       0.02864181      -0.02182984       0.01226591       1.00000000       1.50000000       2.00000000      -0.03121213      -0.06137647      -0.04828472      -0.01562690
2
Properties=species:S:1:pos:R:3:quaternions:R:4:old_torques:R:3:torques:R:3:c_diameter[1]:R:1:c_diameter[2]:R:1:c_diameter[3]:R:1:forces:R:3:energies:R:1 separation_distance=2.977558074683782 old_energy=-0.4752703241928472 distance=2.9775580739219545 gb_cutoff=5.0 gb_epsilon=1.0 gb_sigma=1.0 energy=-0.011927161627003014 pbc="F F F"
X       10.00000000      10.00000000      10.00000000       0.31611489      -0.38888896      -0.42509939       0.75374218      -0.08894400      -0.75657178      -0.10604458       0.00961737      -0.01300951      -0.00848952       1.00000000       1.50000000       2.00000000       0.04132232       0.02073425       0.03942768      -0.01192716
X       11.92503788      11.13934783      11.96518899       0.79839400      -0.20009082       0.03776790       0.56666063       0.59735505       0.16920300      -0.19681614      -0.00544226       0.01831591       0.00132324       1.00000000       1.50000000       2.00000000      -0.04132232      -0.02073425      -0.03942768      -0.01192716
2
Properties=species:S:1:pos:R:3:quaternions:R:4:old_torques:R:3:torques:R:3:c_diameter[1]:R:1:c_diameter[2]:R:1:c_diameter[3]:R:1:forces:R:3:energies:R:1 separation_distance=2.6207319606620407 old_energy=-0.7611672247028042 distance=2.620731956375866 gb_cutoff=5.0 gb_epsilon=1.0 gb_sigma=1.0 energy=-0.01209650075751968 pbc="F F F"
X       10.00000000      10.00000000      10.00000000       0.04228135       0.05194627      -0.94127676      -0.33092587      -0.02142210      -0.01403803       0.01828637       0.00004091       0.00842776      -0.01221392       1.00000000       1.50000000       2.00000000       0.04471938       0.03724704       0.02047090      -0.01209650
X       11.55136916      11.77772678      11.14069155       0.16469339       0.03523908      -0.89432200      -0.41451472       0.10971067      -0.11077938      -0.01922344      -0.00613662       0.01082532      -0.00950100       1.00000000       1.50000000       2.00000000      -0.04471938      -0.03724704      -0.02047090      -0.01209650
2
Properties=species:S:1:pos:R:3:quaternions:R:4:old_torques:R:3:torques:R:3:c_diameter[1]:R:1:c_diameter[2]:R:1:c_diameter[3]:R:1:forces:R:3:energies:R:1 separation_distance=2.888428173241645 old_energy=-0.5342437347154294 distance=2.8884281707113386 gb_cutoff=5.0 gb_epsilon=1.0 gb_sigma=1.0 energy=-0.009509556947727146 pbc="F F F"
X       10.00000000      10.00000000      10.00000000       0.02246701      -0.80202498       0.52416698       0.28548231       0.32702315      -1.01666749       0.52841168       0.00001255      -0.00492308       0.01165832       1.00000000       1.50000000       2.00000000       0.01991953       0.03936723       0.01800972      -0.00950956
X       11.76509847      11.91710277      11.24585780       0.26917128       0.74913346      -0.55833342      -0.23368714      -0.19735147       0.53576217       0.62190784      -0.01453205      -0.00204894       0.01964094       1.00000000       1.50000000       2.00000000      -0.01991953      -0.03936723      -0.01800972      -0.00950956
2
Properties=species:S:1:pos:R:3:quaternions:R:4:old_torques:R:3:torques:R:3:c_diameter[1]:R:1:c_diameter[2]:R:1:c_diameter[3]:R:1:forces:R:3:energies:R:1 separation_distance=2.408612882824976 old_energy=-0.8883103977661744 distance=2.408612877085294 gb_cutoff=5.0 gb_epsilon=1.0 gb_sigma=1.0 energy=-0.033491074212319984 pbc="F F F"
X       10.00000000      10.00000000      10.00000000       0.88773763      -0.02739271       0.28360227      -0.36158166       0.02029483      -0.07369402       0.07742861      -0.06524883      -0.06808825       0.05916518       1.00000000       1.50000000       2.00000000       0.03517704       0.12387229       0.16249376      -0.03349107
X       11.04871239      11.15162918      11.83721761       0.53674212       0.17581465      -0.47788576       0.67277211      -0.10086493      -0.17437636      -0.00569544       0.02480103      -0.03769308       0.03023032       1.00000000       1.50000000       2.00000000      -0.03517704      -0.12387229      -0.16249376      -0.03349107
2
Properties=species:S:1:pos:R:3:quaternions:R:4:old_torques:R:3:torques:R:3:c_diameter[1]:R:1:c_diameter[2]:R:1:c_diameter[3]:R:1:forces:R:3:energies:R:1 separation_distance=2.5051167548521858 old_energy=-0.8181153602405221 distance=2.5051167566549553 gb_cutoff=5.0 gb_epsilon=1.0 gb_sigma=1.0 energy=-0.018219808901778923 pbc="F F F"
X       10.00000000      10.00000000      10.00000000       0.43064867       0.48653618      -0.71040610      -0.27045785      -0.09098099       0.44717289       0.38947013      -0.03579394       0.00915893       0.03509475       1.00000000       1.50000000       2.00000000       0.04801114       0.08238566       0.03311186      -0.01821981
X       11.36670612      11.68830616      11.24793696       0.51108579       0.67636596       0.41501956       0.33027135       0.03991849      -0.67751175      -0.00491985      -0.01111520       0.00550176      -0.00355526       1.00000000       1.50000000       2.00000000      -0.04801114      -0.08238566      -0.03311186      -0.01821981
2
Properties=species:S:1:pos:R:3:quaternions:R:4:old_torques:R:3:torques:R:3:c_diameter[1]:R:1:c_diameter[2]:R:1:c_diameter[3]:R:1:forces:R:3:energies:R:1 separation_distance=2.8918138675026057 old_energy=-0.5075695547387683 distance=2.8918138634768797 gb_cutoff=5.0 gb_epsilon=1.0 gb_sigma=1.0 energy=-0.011984658073940101 pbc="F F F"
X       10.00000000      10.00000000      10.00000000       0.60479099       0.23803778       0.75023869      -0.12127567      -0.39319152       1.29443659       0.49157684       0.00704039      -0.01671108       0.00072939       1.00000000       1.50000000       2.00000000       0.03903297       0.01969872       0.04440495      -0.01198466
X       11.79560247      11.43781749      11.75244973       0.77656161      -0.43885989      -0.10139566      -0.44053716       0.13108122      -0.48183998       0.55535463       0.02228481       0.00538077      -0.02148062       1.00000000       1.50000000       2.00000000      -0.03903297      -0.01969872      -0.04440495      -0.01198466
2
Properties=species:S:1:pos:R:3:quaternions:R:4:old_torques:R:3:torques:R:3:c_diameter[1]:R:1:c_diameter[2]:R:1:c_diameter[3]:R:1:forces:R:3:energies:R:1 separation_distance=3.0245528368034558 old_energy=-0.45639219921979407 distance=3.0245528432695945 gb_cutoff=5.0 gb_epsilon=1.0 gb_sigma=1.0 energy=-0.010074988422776368 pbc="F F F"
X       10.00000000      10.00000000      10.00000000       0.76300526      -0.19209417      -0.60622576       0.11581508       0.54989568       0.71343083      -0.41845689       0.00185548      -0.01329086       0.00641026       1.00000000       1.50000000       2.00000000       0.02873745       0.02293261       0.03514842      -0.01007499
X       11.98856309      11.35709711      11.83079878       0.89547344      -0.30669747       0.32258268      -0.00209446      -0.07397514       0.11584031       0.49440253       0.00385934      -0.00399148       0.00019317       1.00000000       1.50000000       2.00000000      -0.02873745      -0.02293261      -0.03514842      -0.01007499
2
Properties=species:S:1:pos:R:3:quaternions:R:4:old_torques:R:3:torques:R:3:c_diameter[1]:R:1:c_diameter[2]:R:1:c_diameter[3]:R:1:forces:R:3:energies:R:1 separation_distance=2.796406574109269 old_energy=-0.6451539185678158 distance=2.7964065745102045 gb_cutoff=5.0 gb_epsilon=1.0 gb_sigma=1.0 energy=-0.00846891595607302 pbc="F F F"
X       10.00000000      10.00000000      10.00000000       0.64136063      -0.28580517       0.06511091       0.70903633      -0.01901356      -0.19800334       0.62092710      -0.00642063       0.00894129      -0.00147366       1.00000000       1.50000000       2.00000000       0.02715157       0.02396007       0.01984220      -0.00846892
X       11.75449436      11.48518686      11.59243815       0.46204943       0.07540425       0.33826424      -0.81633439      -0.14271690      -0.17187673       0.45187504      -0.00226492      -0.00051713       0.00318632       1.00000000       1.50000000       2.00000000      -0.02715157      -0.02396007      -0.01984220      -0.00846892
2
Properties=species:S:1:pos:R:3:quaternions:R:4:old_torques:R:3:torques:R:3:c_diameter[1]:R:1:c_diameter[2]:R:1:c_diameter[3]:R:1:forces:R:3:energies:R:1 separation_distance=2.844236953104318 old_energy=-0.3785603367700211 distance=2.844236957584784 gb_cutoff=5.0 gb_epsilon=1.0 gb_sigma=1.0 energy=-0.00929174768528408 pbc="F F F"
X       10.00000000      10.00000000      10.00000000       0.22093298       0.42828634      -0.75305459       0.44796005      -0.13841442       0.23217493       0.52603138      -0.00450142       0.01275912      -0.00910071       1.00000000       1.50000000       2.00000000       0.03593713       0.02165033       0.01826242      -0.00929175
X       11.92529207      11.45761355      11.50276314       0.12206328       0.17148909      -0.70052625      -0.68187611       0.10278896       0.95169185      -0.12046602      -0.00141435       0.00608538      -0.00159852       1.00000000       1.50000000       2.00000000      -0.03593713      -0.02165033      -0.01826242      -0.00929175
2
Properties=species:S:1:pos:R:3:quaternions:R:4:old_torques:R:3:torques:R:3:c_diameter[1]:R:1:c_diameter[2]:R:1:c_diameter[3]:R:1:forces:R:3:energies:R:1 separation_distance=2.7605247856637942 old_energy=-0.4963462609135235 distance=2.7605247842279295 gb_cutoff=5.0 gb_epsilon=1.0 gb_sigma=1.0 energy=-0.005735247575372075 pbc="F F F"
X       10.00000000      10.00000000      10.00000000       0.31940295      -0.71455199      -0.59068200      -0.19619377      -0.18642279       0.46375126       0.67770395      -0.00143089      -0.00152295       0.00305970       1.00000000       1.50000000       2.00000000       0.01406661       0.01396440       0.01611137      -0.00573525
X       11.72168610      11.33207150      11.69760996       0.12528866      -0.59332598       0.64759118       0.46140296       0.08982794      -0.84681072       0.20905004      -0.00081372      -0.00233616       0.00224489       1.00000000       1.50000000       2.00000000      -0.01406661      -0.01396440      -0.01611137      -0.00573525
2
Properties=species:S:1:pos:R:3:quaternions:R:4:old_torques:R:3:torques:R:3:c_diameter[1]:R:1:c_diameter[2]:R:1:c_diameter[3]:R:1:forces:R:3:energies:R:1 separation_distance=2.855159640027662 old_energy=-0.6235089927170098 distance=2.855159638530026 gb_cutoff=5.0 gb_epsilon=1.0 gb_sigma=1.0 energy=-0.007149796809470321 pbc="F F F"
X       10.00000000      10.00000000      10.00000000       0.66591806       0.08473582      -0.72989326       0.12895273       0.06618043      -0.30815190       0.14659735       0.00771352      -0.01400146       0.00567896       1.00000000       1.50000000       2.00000000       0.01591114       0.01834074       0.02373275      -0.00714980
X       11.70297893      11.58082025      11.65915842       0.49090774       0.27734578       0.35015315      -0.74798508       0.04362709      -0.04577779       0.05794190      -0.00062652      -0.00001581       0.00040230       1.00000000       1.50000000       2.00000000      -0.01591114      -0.01834074      -0.02373275      -0.00714980
2
Properties=species:S:1:pos:R:3:quaternions:R:4:old_torques:R:3:torques:R:3:c_diameter[1]:R:1:c_diameter[2]:R:1:c_diameter[3]:R:1:forces:R:3:energies:R:1 separation_distance=2.7432709655805025 old_energy=-0.23059788201092943 distance=2.7432709705156535 gb_cutoff=5.0 gb_epsilon=1.0 gb_sigma=1.0 energy=-0.009620814859883768 pbc="F F F"
X       10.00000000      10.00000000      10.00000000       0.26350462      -0.31287960       0.25636216       0.87575688       0.02051908       0.15501257      -0.06711136       0.00917120       0.00316922      -0.01207370       1.00000000       1.50000000       2.00000000       0.03525372       0.01837897       0.02563917      -0.00962081
X       11.98813440      11.15114486      11.49924072       0.17909952       0.75834289       0.57165856       0.25699400       0.01344679      -0.01535636       0.29315585      -0.00721130      -0.00128951       0.00803142       1.00000000       1.50000000       2.00000000      -0.03525372      -0.01837897      -0.02563917      -0.00962081
2
Properties=species:S:1:pos:R:3:quaternions:R:4:old_torques:R:3:torques:R:3:c_diameter[1]:R:1:c_diameter[2]:R:1:c_diameter[3]:R:1:forces:R:3:energies:R:1 separation_distance=2.705955253743623 old_energy=-0.607138548955654 distance=2.7059552511339255 gb_cutoff=5.0 gb_epsilon=1.0 gb_sigma=1.0 energy=-0.03716495745045384 pbc="F F F"
X       10.00000000      10.00000000      10.00000000       0.64344812      -0.08266242       0.14070091       0.74789351      -0.86906918      -3.46662400       1.73459243      -0.07509030       0.04499147       0.03208386       1.00000000       1.50000000       2.00000000       0.13762467       0.17519616       0.07505458      -0.03716496
X       11.69237426      11.44153263      11.54274005       0.29772764       0.69607619      -0.64902417      -0.07485872       0.49694722      -1.39523785      -2.10715426      -0.08699820       0.04030717       0.06602316       1.00000000       1.50000000       2.00000000      -0.13762467      -0.17519616      -0.07505458      -0.03716496
2
Properties=species:S:1:pos:R:3:quaternions:R:4:old_torques:R:3:torques:R:3:c_diameter[1]:R:1:c_diameter[2]:R:1:c_diameter[3]:R:1:forces:R:3:energies:R:1 separation_distance=3.016703512233809 old_energy=-0.6071307963787272 distance=3.016703507145149 gb_cutoff=5.0 gb_epsilon=1.0 gb_sigma=1.0 energy=-0.017628161806070068 pbc="F F F"
X       10.00000000      10.00000000      10.00000000       0.40177004      -0.67393464       0.01168279      -0.61988422       0.02696736       0.08641529       0.17232613       0.02509504      -0.02525404      -0.00453888       1.00000000       1.50000000       2.00000000       0.06050876       0.04212079       0.06165743      -0.01762816
X       11.95769740      11.38848887      11.82757205       0.07879326       0.94733523      -0.24760710      -0.18718524      -0.26375984       0.05235563       0.00651739      -0.01646316       0.01513156       0.00298290       1.00000000       1.50000000       2.00000000      -0.06050876      -0.04212079      -0.06165743      -0.01762816
2
Properties=species:S:1:pos:R:3:quaternions:R:4:old_torques:R:3:torques:R:3:c_diameter[1]:R:1:c_diameter[2]:R:1:c_diameter[3]:R:1:forces:R:3:energies:R:1 separation_distance=2.93968791802368 old_energy=-0.34250774184764715 distance=2.93968792277281 gb_cutoff=5.0 gb_epsilon=1.0 gb_sigma=1.0 energy=-0.0049143241571641474 pbc="F F F"
X       10.00000000      10.00000000      10.00000000       0.90916454       0.37962688       0.05064858      -0.16351755      -0.15425766      -0.72465123      -0.32652325       0.00033201       0.00211797      -0.00342068       1.00000000       1.50000000       2.00000000       0.01540200       0.01119087       0.01055543      -0.00491432
X       11.94793341      11.58381055      11.52933471       0.24043271       0.28607153      -0.31705761      -0.87168209      -0.15169330       0.31455125       0.52440088      -0.00072879       0.00087555       0.00082590       1.00000000       1.50000000       2.00000000      -0.01540200      -0.01119087      -0.01055543      -0.00491432
2
Properties=species:S:1:pos:R:3:quaternions:R:4:old_torques:R:3:torques:R:3:c_diameter[1]:R:1:c_diameter[2]:R:1:c_diameter[3]:R:1:forces:R:3:energies:R:1 separation_distance=3.0127077858254214 old_energy=-0.49851302343016524 distance=3.0127077853356723 gb_cutoff=5.0 gb_epsilon=1.0 gb_sigma=1.0 energy=-0.004505550979146476 pbc="F F F"
X       10.00000000      10.00000000      10.00000000       0.14790182       0.33688661       0.38611195      -0.84590190       0.26553945      -0.17651458       0.49127916       0.00534680      -0.00009078      -0.00290874       1.00000000       1.50000000       2.00000000       0.00928767       0.01166130       0.01292840      -0.00450555
X       11.63923567      11.81362314      11.76070603       0.69570712      -0.10558605       0.58330425      -0.40570844       0.17534867       0.87862655      -0.30783624      -0.00243167      -0.00474905       0.00518003       1.00000000       1.50000000       2.00000000      -0.00928767      -0.01166130      -0.01292840      -0.00450555
2
Properties=species:S:1:pos:R:3:quaternions:R:4:old_torques:R:3:torques:R:3:c_diameter[1]:R:1:c_diameter[2]:R:1:c_diameter[3]:R:1:forces:R:3:energies:R:1 separation_distance=2.57443337791261 old_energy=-0.632117259697585 distance=2.5744333780795428 gb_cutoff=5.0 gb_epsilon=1.0 gb_sigma=1.0 energy=-0.02122551393348937 pbc="F F F"
X       10.00000000      10.00000000      10.00000000       0.03233972       0.99630332       0.06920078       0.03930773      -0.58301194      -3.60529013       1.70893569      -0.01546975       0.03470446      -0.02205575       1.00000000       1.50000000       2.00000000       0.08316896       0.06698556       0.05360261      -0.02122551
X       11.59490061      11.67528368      11.13023177       0.26172231      -0.86189150       0.15119786      -0.40716543       0.09190517       0.22456226       2.57564329       0.02956013      -0.02619510      -0.01044055       1.00000000       1.50000000       2.00000000      -0.08316896      -0.06698556      -0.05360261      -0.02122551
2
Properties=species:S:1:pos:R:3:quaternions:R:4:old_torques:R:3:torques:R:3:c_diameter[1]:R:1:c_diameter[2]:R:1:c_diameter[3]:R:1:forces:R:3:energies:R:1 separation_distance=2.9404034866562827 old_energy=-0.46187369084287566 distance=2.9404034797020366 gb_cutoff=5.0 gb_epsilon=1.0 gb_sigma=1.0 energy=-0.01663286606082199 pbc="F F F"
X       10.00000000      10.00000000      10.00000000       0.42266832      -0.38840820       0.29074800       0.76547774       0.00921902       0.20461002      -0.32200862       0.02099521       0.00200870      -0.02316156       1.00000000       1.50000000       2.00000000       0.05709007       0.03642556       0.05933634      -0.01663287
X       11.93462595      11.52156805      11.60873420       0.21043956      -0.56025276      -0.01311193      -0.80103690      -0.59605581      -0.91331827      -0.53118400       0.01069001      -0.02495958       0.00676498       1.00000000       1.50000000       2.00000000      -0.05709007      -0.03642556      -0.05933634      -0.01663287
2
Properties=species:S:1:pos:R:3:quaternions:R:4:old_torques:R:3:torques:R:3:c_diameter[1]:R:1:c_diameter[2]:R:1:c_diameter[3]:R:1:forces:R:3:energies:R:1 separation_distance=2.9909600230000906 old_energy=-0.4402310380565222 distance=2.990960022800463 gb_cutoff=5.0 gb_epsilon=1.0 gb_sigma=1.0 energy=-0.013943990930645382 pbc="F F F"
X       10.00000000      10.00000000      10.00000000       0.00392620      -0.82742135       0.48396399       0.28484618       0.22813612      -0.64159009       0.45588915      -0.01521646      -0.00728716       0.02007307       1.00000000       1.50000000       2.00000000       0.02591248       0.05311408       0.04413775      -0.01394399
X       11.28387697      11.96386982      11.85491701       0.74446928      -0.29574024       0.37634093       0.46547900       0.04496240       0.03628399      -0.57167152       0.00337504      -0.00131478      -0.00276986       1.00000000       1.50000000       2.00000000      -0.02591248      -0.05311408      -0.04413775      -0.01394399
2
Properties=species:S:1:pos:R:3:quaternions:R:4:old_torques:R:3:torques:R:3:c_diameter[1]:R:1:c_diameter[2]:R:1:c_diameter[3]:R:1:forces:R:3:energies:R:1 separation_distance=2.7519170246356603 old_energy=-0.7399451289274529 distance=2.7519170296308215 gb_cutoff=5.0 gb_epsilon=1.0 gb_sigma=1.0 energy=-0.006043705698880666 pbc="F F F"
X       10.00000000      10.00000000      10.00000000       0.26285812      -0.45068921       0.83038725       0.19555526       0.00579627       4.89696069       0.12831535       0.00200047      -0.00307747       0.00131028       1.00000000       1.50000000       2.00000000       0.01781102       0.01483041       0.01431155      -0.00604371
X       11.88878914      11.30691221      11.51575176       0.18169067      -0.85291152      -0.48522982      -0.06389419       0.01294927      -0.66786000      -0.46043286      -0.00577575       0.00304305       0.00342381       1.00000000       1.50000000       2.00000000      -0.01781102      -0.01483041      -0.01431155      -0.00604371
2
Properties=species:S:1:pos:R:3:quaternions:R:4:old_torques:R:3:torques:R:3:c_diameter[1]:R:1:c_diameter[2]:R:1:c_diameter[3]:R:1:forces:R:3:energies:R:1 separation_distance=2.9615178718572057 old_energy=-0.25601631632741134 distance=2.9615178643796765 gb_cutoff=5.0 gb_epsilon=1.0 gb_sigma=1.0 energy=-0.010738578807731441 pbc="F F F"
X       10.00000000      10.00000000      10.00000000       0.79626427      -0.22058047      -0.02014753      -0.56294009       0.01461609      -0.64878478       0.06822012      -0.01566964       0.00802320       0.00310961       1.00000000       1.50000000       2.00000000       0.02803408       0.03562361       0.03081125      -0.01073858
X       11.70349473      11.62324084      11.79827221       0.00751823      -0.72326352       0.36788671       0.58437378       0.11140834      -0.28280972       0.36941767       0.00162278      -0.01009709       0.01206895       1.00000000       1.50000000       2.00000000      -0.02803408      -0.03562361      -0.03081125      -0.01073858
2
Properties=species:S:1:pos:R:3:quaternions:R:4:old_torques:R:3:torques:R:3:c_diameter[1]:R:1:c_diameter[2]:R:1:c_diameter[3]:R:1:forces:R:3:energies:R:1 separation_distance=2.7778262436553507 old_energy=-0.6953830763864183 distance=2.777826239385474 gb_cutoff=5.0 gb_epsilon=1.0 gb_sigma=1.0 energy=-0.010264242477513612 pbc="F F F"
X       10.00000000      10.00000000      10.00000000       0.04154810      -0.73225348      -0.04299275       0.67840269       0.20619935      -0.26606609       0.24911779       0.01226123      -0.01196483       0.00330810       1.00000000       1.50000000       2.00000000       0.01468171       0.02798605       0.04065343      -0.01026424
X       11.24419418      11.74240963      11.76983280       0.64290138      -0.06392905      -0.76211589      -0.04207442       0.04500217       0.08373222      -0.28587463       0.00904308      -0.01263177       0.00593043       1.00000000       1.50000000       2.00000000      -0.01468171      -0.02798605      -0.04065343      -0.01026424
2
Properties=species:S:1:pos:R:3:quaternions:R:4:old_torques:R:3:torques:R:3:c_diameter[1]:R:1:c_diameter[2]:R:1:c_diameter[3]:R:1:forces:R:3:energies:R:1 separation_distance=2.720992128629706 old_energy=-0.6250431195497513 distance=2.720992132267051 gb_cutoff=5.0 gb_epsilon=1.0 gb_sigma=1.0 energy=-0.009421556830249457 pbc="F F F"
X       10.00000000      10.00000000      10.00000000       0.09336734       0.03066133      -0.49903950      -0.86098897      -0.42700258      -8.67741050       1.12198060      -0.00223330       0.01179439      -0.01250385       1.00000000       1.50000000       2.00000000       0.03743849       0.02142033       0.01741616      -0.00942156
X       11.79632606      11.46826796      11.42168916       0.19766298       0.02210415      -0.70910528      -0.67646911      -0.29992926      -8.08770055       0.97994577      -0.00264817       0.01014641      -0.00398799       1.00000000       1.50000000       2.00000000      -0.03743849      -0.02142033      -0.01741616      -0.00942156
2
Properties=species:S:1:pos:R:3:quaternions:R:4:old_torques:R:3:torques:R:3:c_diameter[1]:R:1:c_diameter[2]:R:1:c_diameter[3]:R:1:forces:R:3:energies:R:1 separation_distance=2.8294050635351717 old_energy=-0.6746138702467975 distance=2.829405065479387 gb_cutoff=5.0 gb_epsilon=1.0 gb_sigma=1.0 energy=-0.018765792364539433 pbc="F F F"
X       10.00000000      10.00000000      10.00000000       0.43125311       0.13251784      -0.43805062       0.77754191       0.05521171      -0.37017495      -0.22233429       0.00021648      -0.00960468       0.01058415       1.00000000       1.50000000       2.00000000       0.06100336       0.04442807       0.07117514      -0.01876579
X       11.92686141      11.35870614      11.56417894       0.35099084       0.73187971       0.26940806      -0.51824397      -0.67450212      -1.17089229       0.67663568       0.02699618      -0.03211978      -0.00786307       1.00000000       1.50000000       2.00000000      -0.06100336      -0.04442807      -0.07117514      -0.01876579
2
Properties=species:S:1:pos:R:3:quaternions:R:4:old_torques:R:3:torques:R:3:c_diameter[1]:R:1:c_diameter[2]:R:1:c_diameter[3]:R:1:forces:R:3:energies:R:1 separation_distance=2.9398649730176403 old_energy=-0.28389090377008575 distance=2.939864969284182 gb_cutoff=5.0 gb_epsilon=1.0 gb_sigma=1.0 energy=-0.011367422366427899 pbc="F F F"
X       10.00000000      10.00000000      10.00000000       0.51621077      -0.06900127      -0.85235170      -0.04755895      -2.08877618      -6.99618904       3.59059389      -0.00519182      -0.00234094       0.01485194       1.00000000       1.50000000       2.00000000       0.03861308       0.03480579       0.02571219      -0.01136742
X       11.80605246      11.69687899      11.58163910       0.05242005      -0.20250849       0.83677564      -0.50601282      -4.13457738       7.15963122      -3.14208919      -0.00622791       0.01697534      -0.01751258       1.00000000       1.50000000       2.00000000      -0.03861308      -0.03480579      -0.02571219      -0.01136742
2
Properties=species:S:1:pos:R:3:quaternions:R:4:old_torques:R:3:torques:R:3:c_diameter[1]:R:1:c_diameter[2]:R:1:c_diameter[3]:R:1:forces:R:3:energies:R:1 separation_distance=2.742002248389839 old_energy=-0.6574868145907321 distance=2.74200224431414 gb_cutoff=5.0 gb_epsilon=1.0 gb_sigma=1.0 energy=-0.015982877263734107 pbc="F F F"
X       10.00000000      10.00000000      10.00000000       0.60301668       0.08584148      -0.73634718       0.29460983       0.00347444       0.33318011      -0.08490814       0.01978640      -0.03846971       0.01204718       1.00000000       1.50000000       2.00000000       0.03523013       0.04349912       0.06687191      -0.01598288
X       11.18400213      11.71530259      11.78169927       0.76575508      -0.62457218      -0.14934137      -0.03501294      -0.33898778       0.19874536       0.26190717       0.01741681       0.02206272      -0.02097446       1.00000000       1.50000000       2.00000000      -0.03523013      -0.04349912      -0.06687191      -0.01598288
2
Properties=species:S:1:pos:R:3:quaternions:R:4:old_torques:R:3:torques:R:3:c_diameter[1]:R:1:c_diameter[2]:R:1:c_diameter[3]:R:1:forces:R:3:energies:R:1 separation_distance=2.9348590386226836 old_energy=-0.34443102722043434 distance=2.934859037412775 gb_cutoff=5.0 gb_epsilon=1.0 gb_sigma=1.0 energy=-0.005910171065333989 pbc="F F F"
X       10.00000000      10.00000000      10.00000000       0.16150392       0.16443095      -0.44600245       0.86484725       0.50777946      -0.40724031      -2.49062239      -0.00017713       0.00140372       0.00068539       1.00000000       1.50000000       2.00000000       0.01297170       0.01412940       0.01874206      -0.00591017
X       11.40101227      11.63316451      11.99582962       0.53118111       0.16132310       0.66115429      -0.50467463      -1.91166893      -8.53801523       2.21959501       0.00258612      -0.00177226      -0.00207485       1.00000000       1.50000000       2.00000000      -0.01297170      -0.01412940      -0.01874206      -0.00591017
2
Properties=species:S:1:pos:R:3:quaternions:R:4:old_torques:R:3:torques:R:3:c_diameter[1]:R:1:c_diameter[2]:R:1:c_diameter[3]:R:1:forces:R:3:energies:R:1 separation_distance=3.1611117287194532 old_energy=-0.4123520692916593 distance=3.1611117232913184 gb_cutoff=5.0 gb_epsilon=1.0 gb_sigma=1.0 energy=-0.004801170346467326 pbc="F F F"
X       10.00000000      10.00000000      10.00000000       0.25475317       0.47837224       0.33387593      -0.77122480      -1.52709151      -0.06403168       0.03679062       0.00738818      -0.00357362      -0.00075065       1.00000000       1.50000000       2.00000000       0.00981364       0.01263394       0.01403255      -0.00480117
X       11.61716352      11.97570019      11.86387184       0.13077282       0.25579614      -0.28814603       0.91347615       0.92487413      -0.74813694      -0.94640431      -0.00321212      -0.00082793       0.00179299       1.00000000       1.50000000       2.00000000      -0.00981364      -0.01263394      -0.01403255      -0.00480117
2
Properties=species:S:1:pos:R:3:quaternions:R:4:old_torques:R:3:torques:R:3:c_diameter[1]:R:1:c_diameter[2]:R:1:c_diameter[3]:R:1:forces:R:3:energies:R:1 separation_distance=2.61559561588105 old_energy=-0.6142390490264081 distance=2.6155956088851524 gb_cutoff=5.0 gb_epsilon=1.0 gb_sigma=1.0 energy=-0.029596004001553492 pbc="F F F"
X       10.00000000      10.00000000      10.00000000       0.36431364      -0.16614343       0.61056883       0.68328444      -0.28506654      -1.45491993       2.54538086       0.06539961      -0.00500079      -0.06155694       1.00000000       1.50000000       2.00000000       0.10925696       0.08474374       0.11293106      -0.02959600
X       11.26160556      11.72812919      11.50441394       0.07906837       0.46354543      -0.67834327       0.56455667      -0.65516067       1.80827618      -3.27039329       0.00227019       0.02689402      -0.02034002       1.00000000       1.50000000       2.00000000      -0.10925696      -0.08474374      -0.11293106      -0.02959600
2
Properties=species:S:1:pos:R:3:quaternions:R:4:old_torques:R:3:torques:R:3:c_diameter[1]:R:1:c_diameter[2]:R:1:c_diameter[3]:R:1:forces:R:3:energies:R:1 separation_distance=3.276744339787011 old_energy=-0.10010491385091803 distance=3.2767443405236776 gb_cutoff=5.0 gb_epsilon=1.0 gb_sigma=1.0 energy=-0.0024801604248476006 pbc="F F F"
X       10.00000000      10.00000000      10.00000000       0.05540232      -0.98626315      -0.14608843       0.05360744       0.03699803       0.30439754      -0.04524196      -0.00183465       0.00283138      -0.00085655       1.00000000       1.50000000       2.00000000       0.00674971       0.00547153       0.00440229      -0.00248016
X       11.94709566      11.89585038      11.83074392       0.15222930       0.96155893       0.13940832       0.18109661      -0.01466214      -0.09852532      -0.06211172       0.00016377       0.00095394      -0.00128631       1.00000000       1.50000000       2.00000000      -0.00674971      -0.00547153      -0.00440229      -0.00248016
2
Properties=species:S:1:pos:R:3:quaternions:R:4:old_torques:R:3:torques:R:3:c_diameter[1]:R:1:c_diameter[2]:R:1:c_diameter[3]:R:1:forces:R:3:energies:R:1 separation_distance=2.766857125339579 old_energy=-0.647181895463269 distance=2.7668571249921317 gb_cutoff=5.0 gb_epsilon=1.0 gb_sigma=1.0 energy=-0.01813345322364664 pbc="F F F"
X       10.00000000      10.00000000      10.00000000       0.64677767      -0.07809459       0.43547231      -0.62124372      -0.04176916       0.03017584       0.08418340      -0.01588127      -0.00510334       0.00924137       1.00000000       1.50000000       2.00000000       0.02616243       0.07232855       0.06461898      -0.01813345
X       11.00300091      11.75659712      11.88781728       0.35694465       0.90709928      -0.13930298      -0.17422997       0.01090639      -0.07078580       0.01143624      -0.00715229      -0.01031967       0.01734738       1.00000000       1.50000000       2.00000000      -0.02616243      -0.07232855      -0.06461898      -0.01813345
2
Properties=species:S:1:pos:R:3:quaternions:R:4:old_torques:R:3:torques:R:3:c_diameter[1]:R:1:c_diameter[2]:R:1:c_diameter[3]:R:1:forces:R:3:energies:R:1 separation_distance=2.6671841417448774 old_energy=-0.7220784681494821 distance=2.667184136892445 gb_cutoff=5.0 gb_epsilon=1.0 gb_sigma=1.0 energy=-0.018074997595113322 pbc="F F F"
X       10.00000000      10.00000000      10.00000000       0.94142061       0.09932142       0.23669694      -0.21871681       0.03357226       0.50995542      -0.17298245      -0.01556228       0.02429362      -0.00315730       1.00000000       1.50000000       2.00000000       0.08206831       0.04613082       0.02911754      -0.01807500
X       11.98245868      11.44245557      11.05026222       0.25349174      -0.95377264       0.15293579      -0.05167525       0.45426196       1.05527771      -0.48064333       0.00911359       0.00417530      -0.02377015       1.00000000       1.50000000       2.00000000      -0.08206831      -0.04613082      -0.02911754      -0.01807500
2
Properties=species:S:1:pos:R:3:quaternions:R:4:old_torques:R:3:torques:R:3:c_diameter[1]:R:1:c_diameter[2]:R:1:c_diameter[3]:R:1:forces:R:3:energies:R:1 separation_distance=2.6482477281619206 old_energy=-0.7596385363136766 distance=2.6482477256960615 gb_cutoff=5.0 gb_epsilon=1.0 gb_sigma=1.0 energy=-0.013305386040809341 pbc="F F F"
X       10.00000000      10.00000000      10.00000000       0.10687382      -0.46971436       0.08455875       0.87223634       0.00304758      -0.53037516      -0.26865632       0.01086166       0.00120175      -0.00916306       1.00000000       1.50000000       2.00000000       0.04238673       0.02615442       0.04898736      -0.01330539
X       11.88143128      11.16122239      11.45773623       0.71492132      -0.04515973       0.69713509      -0.02916800       0.50325622      -5.84688876      -0.83030767       0.00789730      -0.03157942       0.00915039       1.00000000       1.50000000       2.00000000      -0.04238673      -0.02615442      -0.04898736      -0.01330539
2
Properties=species:S:1:pos:R:3:quaternions:R:4:old_torques:R:3:torques:R:3:c_diameter[1]:R:1:c_diameter[2]:R:1:c_diameter[3]:R:1:forces:R:3:energies:R:1 separation_distance=2.9218288914574386 old_energy=-0.18177082591304253 distance=2.9218288951269815 gb_cutoff=5.0 gb_epsilon=1.0 gb_sigma=1.0 energy=-0.007236290354107811 pbc="F F F"
X       10.00000000      10.00000000      10.00000000       0.13428250      -0.17045601      -0.43580986       0.87348883       0.06624010      -0.21241765       0.20530865       0.00498073      -0.00013708      -0.00851605       1.00000000       1.50000000       2.00000000       0.02344916       0.01394418       0.02079187      -0.00723629
X       11.84080252      11.30123782      11.85884650       0.31761549       0.75954516       0.54933784       0.14296674      -0.06246189       0.29743989       0.15719572      -0.00384565       0.00545173       0.00367161       1.00000000       1.50000000       2.00000000      -0.02344916      -0.01394418      -0.02079187      -0.00723629
2
Properties=species:S:1:pos:R:3:quaternions:R:4:old_torques:R:3:torques:R:3:c_diameter[1]:R:1:c_diameter[2]:R:1:c_diameter[3]:R:1:forces:R:3:energies:R:1 separation_distance=2.876677367379096 old_energy=-0.47143045961032914 distance=2.876677372604325 gb_cutoff=5.0 gb_epsilon=1.0 gb_sigma=1.0 energy=-0.00739631906176014 pbc="F F F"
X       10.00000000      10.00000000      10.00000000       0.58107610      -0.53398600      -0.40633559       0.46054414      -0.31073305      -0.68719095      -0.66378011      -0.00812639      -0.00132173       0.00658144       1.00000000       1.50000000       2.00000000       0.01962990       0.01835343       0.02236700      -0.00739632
X       11.94738040      11.25716314      11.70367929       0.05412812       0.65244247      -0.16722958      -0.73717246       0.09294071      -0.71269560       0.31225063       0.00497699      -0.00879227       0.00448169       1.00000000       1.50000000       2.00000000      -0.01962990      -0.01835343      -0.02236700      -0.00739632
2
Properties=species:S:1:pos:R:3:quaternions:R:4:old_torques:R:3:torques:R:3:c_diameter[1]:R:1:c_diameter[2]:R:1:c_diameter[3]:R:1:forces:R:3:energies:R:1 separation_distance=2.6721497836661174 old_energy=-0.702820704012216 distance=2.6721497907664506 gb_cutoff=5.0 gb_epsilon=1.0 gb_sigma=1.0 energy=-0.017969289709712545 pbc="F F F"
X       10.00000000      10.00000000      10.00000000       0.73184239       0.44203626       0.46073434       0.23819010      -0.03102327       0.86112829      -0.23968029      -0.01340429       0.00161673       0.00713028       1.00000000       1.50000000       2.00000000       0.03854447       0.05764116       0.07161339      -0.01796929
X       11.44652444      11.33982127      11.80356051       0.45821661       0.67732262      -0.16667456      -0.55090035      -0.07677941       0.07206609      -0.65868263       0.00539411      -0.03568998       0.02460638       1.00000000       1.50000000       2.00000000      -0.03854447      -0.05764116      -0.07161339      -0.01796929
2
Properties=species:S:1:pos:R:3:quaternions:R:4:old_torques:R:3:torques:R:3:c_diameter[1]:R:1:c_diameter[2]:R:1:c_diameter[3]:R:1:forces:R:3:energies:R:1 separation_distance=3.0920917338429006 old_energy=-0.5721719304016097 distance=3.0920917365619123 gb_cutoff=5.0 gb_epsilon=1.0 gb_sigma=1.0 energy=-0.004761871326474932 pbc="F F F"
X       10.00000000      10.00000000      10.00000000       0.73610065       0.30216399      -0.60516358       0.02509585       0.73422681      -5.88217777      -0.70616061       0.00691426      -0.00677989      -0.00123078       1.00000000       1.50000000       2.00000000       0.01147964       0.01040509       0.01420286      -0.00476187
X       11.74488958      11.70540617      11.89946873       0.26850673       0.33254527      -0.35919212      -0.82963775       0.30660969      -5.38424266      -0.52789869      -0.00245676       0.00380270      -0.00019094       1.00000000       1.50000000       2.00000000      -0.01147964      -0.01040509      -0.01420286      -0.00476187
2
Properties=species:S:1:pos:R:3:quaternions:R:4:old_torques:R:3:torques:R:3:c_diameter[1]:R:1:c_diameter[2]:R:1:c_diameter[3]:R:1:forces:R:3:energies:R:1 separation_distance=3.0223903583656377 old_energy=-0.3298831584153487 distance=3.0223903577125895 gb_cutoff=5.0 gb_epsilon=1.0 gb_sigma=1.0 energy=-0.010160534518526996 pbc="F F F"
X       10.00000000      10.00000000      10.00000000       0.27748469      -0.23704247      -0.73414328       0.57257903      -0.07776129      -0.95442319      -0.13485390       0.00716471      -0.01267270       0.00996500       1.00000000       1.50000000       2.00000000       0.01983792       0.03061050       0.03555373      -0.01016053
X       11.67110120      11.69119199      11.86604767       0.76223792       0.32623379       0.21458976      -0.51625198      -0.06970452      -0.09634658      -0.45013837      -0.00415719      -0.00972267       0.00763852       1.00000000       1.50000000       2.00000000      -0.01983792      -0.03061050      -0.03555373      -0.01016053
2
Properties=species:S:1:pos:R:3:quaternions:R:4:old_torques:R:3:torques:R:3:c_diameter[1]:R:1:c_diameter[2]:R:1:c_diameter[3]:R:1:forces:R:3:energies:R:1 separation_distance=2.779916658636822 old_energy=-0.4025075683996484 distance=2.779916660356071 gb_cutoff=5.0 gb_epsilon=1.0 gb_sigma=1.0 energy=-0.018326983786568746 pbc="F F F"
X       10.00000000      10.00000000      10.00000000       0.05304128      -0.30035164      -0.94729760      -0.09799378       0.78045342       0.41534313       2.21425771      -0.00914047       0.01228168      -0.00666915       1.00000000       1.50000000       2.00000000       0.06924600       0.05768268       0.04178785      -0.01832698
X       11.64338940      11.67868000      11.48635170       0.24668400       0.00575200      -0.00743963       0.96905035       0.38390070      -7.41824463      -1.00363457      -0.00644786       0.02196852      -0.01477762       1.00000000       1.50000000       2.00000000      -0.06924600      -0.05768268      -0.04178785      -0.01832698
2
Properties=species:S:1:pos:R:3:quaternions:R:4:old_torques:R:3:torques:R:3:c_diameter[1]:R:1:c_diameter[2]:R:1:c_diameter[3]:R:1:forces:R:3:energies:R:1 separation_distance=2.7663314105689967 old_energy=-0.28344611651683854 distance=2.766331408914413 gb_cutoff=5.0 gb_epsilon=1.0 gb_sigma=1.0 energy=-0.01018338190035492 pbc="F F F"
X       10.00000000      10.00000000      10.00000000       0.32333819      -0.26546523      -0.48866407       0.76562919       0.01386172       0.00134388       0.08464988       0.00450159      -0.00760159       0.00033001       1.00000000       1.50000000       2.00000000       0.02430419       0.02577924       0.03633519      -0.01018338
X       11.57757450      11.32173222      11.84847832       0.32560821       0.52791844      -0.24357411      -0.74562261      -0.08360629       0.14457874       0.42602815      -0.00412856      -0.00479411       0.00821503       1.00000000       1.50000000       2.00000000      -0.02430419      -0.02577924      -0.03633519      -0.01018338
2
Properties=species:S:1:pos:R:3:quaternions:R:4:old_torques:R:3:torques:R:3:c_diameter[1]:R:1:c_diameter[2]:R:1:c_diameter[3]:R:1:forces:R:3:energies:R:1 separation_distance=3.116693315763924 old_energy=-0.60523122084633 distance=3.1166933142091944 gb_cutoff=5.0 gb_epsilon=1.0 gb_sigma=1.0 energy=-0.007257549365126059 pbc="F F F"
X       10.00000000      10.00000000      10.00000000       0.22256964      -0.08667796      -0.66774299       0.70503119       0.02931298      -0.17609700       0.14873953       0.00686500       0.00154769      -0.00715581       1.00000000       1.50000000       2.00000000       0.02185974       0.01128271       0.02438464      -0.00725755
X       11.71907053      11.68339811      11.98109680       0.69045475       0.61343746      -0.37688557       0.07017116      -0.33688186       0.13600728       0.01717399       0.01183192      -0.00016035      -0.01024706       1.00000000       1.50000000       2.00000000      -0.02185974      -0.01128271      -0.02438464      -0.00725755
2
Properties=species:S:1:pos:R:3:quaternions:R:4:old_torques:R:3:torques:R:3:c_diameter[1]:R:1:c_diameter[2]:R:1:c_diameter[3]:R:1:forces:R:3:energies:R:1 separation_distance=2.6728636871697344 old_energy=-0.3445635724552466 distance=2.672863684777927 gb_cutoff=5.0 gb_epsilon=1.0 gb_sigma=1.0 energy=-0.011760150407430139 pbc="F F F"
X       10.00000000      10.00000000      10.00000000       0.64206528      -0.19513299      -0.22740241       0.70566524       0.07224721       0.26381446      -0.40646987      -0.00925372      -0.00113148       0.01064032       1.00000000       1.50000000       2.00000000       0.03269428       0.03762949       0.03351141      -0.01176015
X       11.30815376      11.46339799      11.81422169       0.24862744       0.90460822       0.31133997       0.15144564       0.03513980       0.15143906      -0.36134545      -0.00997400       0.01660808      -0.00925990       1.00000000       1.50000000       2.00000000      -0.03269428      -0.03762949      -0.03351141      -0.01176015
2
Properties=species:S:1:pos:R:3:quaternions:R:4:old_torques:R:3:torques:R:3:c_diameter[1]:R:1:c_diameter[2]:R:1:c_diameter[3]:R:1:forces:R:3:energies:R:1 separation_distance=2.3860542942502563 old_energy=-0.8493827569118532 distance=2.3860542905633912 gb_cutoff=5.0 gb_epsilon=1.0 gb_sigma=1.0 energy=-0.03522771782929463 pbc="F F F"
X       10.00000000      10.00000000      10.00000000       0.23828669       0.14354809      -0.95091889      -0.13552364      -0.02202348      -0.34703411      -0.04875190      -0.06722045       0.08460280       0.02304516       1.00000000       1.50000000       2.00000000       0.15464789       0.11049130       0.10928698      -0.03522772
X       11.31790891      11.06166023      11.68203708       0.09675456       0.22240122      -0.56324117      -0.78989597       0.05776316       0.73122720      -0.09335564      -0.00260437       0.03149040      -0.04161121       1.00000000       1.50000000       2.00000000      -0.15464789      -0.11049130      -0.10928698      -0.03522772
2
Properties=species:S:1:pos:R:3:quaternions:R:4:old_torques:R:3:torques:R:3:c_diameter[1]:R:1:c_diameter[2]:R:1:c_diameter[3]:R:1:forces:R:3:energies:R:1 separation_distance=2.901068562658447 old_energy=-0.6814522132953951 distance=2.9010685585248375 gb_cutoff=5.0 gb_epsilon=1.0 gb_sigma=1.0 energy=-0.012349179743988704 pbc="F F F"
X       10.00000000      10.00000000      10.00000000       0.86994013       0.04667232       0.47263297      -0.13283048       0.02039355      -0.04795020      -0.01176269      -0.00656254      -0.01094268       0.01807157       1.00000000       1.50000000       2.00000000       0.03355349       0.03846502       0.03940460      -0.01234918
X       11.72676707      11.40732020      11.85847360       0.15437406      -0.78688291       0.52887502      -0.27798407       0.04816451       0.09206423      -0.02328219      -0.00946880       0.00525838       0.00112807       1.00000000       1.50000000       2.00000000      -0.03355349      -0.03846502      -0.03940460      -0.01234918
2
Properties=species:S:1:pos:R:3:quaternions:R:4:old_torques:R:3:torques:R:3:c_diameter[1]:R:1:c_diameter[2]:R:1:c_diameter[3]:R:1:forces:R:3:energies:R:1 separation_distance=2.995009666376532 old_energy=-0.5284587039629859 distance=2.9950096653197606 gb_cutoff=5.0 gb_epsilon=1.0 gb_sigma=1.0 energy=-0.009302074855931331 pbc="F F F"
X       10.00000000      10.00000000      10.00000000       0.44612641       0.41336986      -0.77804703      -0.15728762      -0.10490956      -2.18940618       0.41039311      -0.01396278       0.00267894       0.01338390       1.00000000       1.50000000       2.00000000       0.02253637       0.03279587       0.02274748      -0.00930207
X       11.54942965      11.99389879      11.61050249       0.88344958      -0.07318470      -0.44982524      -0.10871107      -2.77825109      -0.76166410       0.45271118       0.00650111      -0.00162967      -0.00750425       1.00000000       1.50000000       2.00000000      -0.02253637      -0.03279587      -0.02274748      -0.00930207
2
Properties=species:S:1:pos:R:3:quaternions:R:4:old_torques:R:3:torques:R:3:c_diameter[1]:R:1:c_diameter[2]:R:1:c_diameter[3]:R:1:forces:R:3:energies:R:1 separation_distance=2.6906873525815973 old_energy=-0.5815896507970082 distance=2.6906873545554655 gb_cutoff=5.0 gb_epsilon=1.0 gb_sigma=1.0 energy=-0.015585535222486036 pbc="F F F"
X       10.00000000      10.00000000      10.00000000       0.33649095       0.00160880      -0.51803509       0.78639106      -0.45807034       2.34948770      -2.55091078       0.01048471      -0.00393581      -0.00665142       1.00000000       1.50000000       2.00000000       0.05712192       0.03674469       0.05016019      -0.01558554
X       11.81518624      11.44081490      11.36709538       0.53050806       0.37379569       0.72940862      -0.21633548       0.96057736     -13.84466779      -1.07195219       0.01155334      -0.00902316      -0.00895224       1.00000000       1.50000000       2.00000000      -0.05712192      -0.03674469      -0.05016019      -0.01558554
2
Properties=species:S:1:pos:R:3:quaternions:R:4:old_torques:R:3:torques:R:3:c_diameter[1]:R:1:c_diameter[2]:R:1:c_diameter[3]:R:1:forces:R:3:energies:R:1 separation_distance=3.2169893013911346 old_energy=-0.06251502320973487 distance=3.216989305168432 gb_cutoff=5.0 gb_epsilon=1.0 gb_sigma=1.0 energy=-0.0055796446392820396 pbc="F F F"
X       10.00000000      10.00000000      10.00000000       0.74670892      -0.29162445       0.03257009      -0.59692559       0.00206320      -0.04463007       0.00538580      -0.00593783       0.00147969       0.00300082       1.00000000       1.50000000       2.00000000       0.01146082       0.01636710       0.01583566      -0.00557964
X       11.58301918      11.97028529      11.99023776       0.62460581       0.30359202       0.40796878      -0.59267271       0.01521188       0.04707906      -0.06648002       0.00456416      -0.00373807       0.00032753       1.00000000       1.50000000       2.00000000      -0.01146082      -0.01636710      -0.01583566      -0.00557964
2
Properties=species:S:1:pos:R:3:quaternions:R:4:old_torques:R:3:torques:R:3:c_diameter[1]:R:1:c_diameter[2]:R:1:c_diameter[3]:R:1:forces:R:3:energies:R:1 separation_distance=2.8551999984763365 old_energy=-0.5559111766768188 distance=2.855199998686776 gb_cutoff=5.0 gb_epsilon=1.0 gb_sigma=1.0 energy=-0.006059027346250997 pbc="F F F"
X       10.00000000      10.00000000      10.00000000       0.55157249      -0.46754478      -0.67168898      -0.16125630       0.18930502      -0.11414466       0.21941963       0.00208483      -0.00478548       0.00316583       1.00000000       1.50000000       2.00000000       0.01730365       0.01547325       0.01535615      -0.00605903
X       11.93901376      11.36378185      11.59138045       0.13925358       0.76691134       0.59054526       0.20907350      -0.01222892       0.15374359       0.23354398      -0.00576622       0.00254638       0.00323862       1.00000000       1.50000000       2.00000000      -0.01730365      -0.01547325      -0.01535615      -0.00605903
2
Properties=species:S:1:pos:R:3:quaternions:R:4:old_torques:R:3:torques:R:3:c_diameter[1]:R:1:c_diameter[2]:R:1:c_diameter[3]:R:1:forces:R:3:energies:R:1 separation_distance=2.763014580646291 old_energy=-0.5568687388437006 distance=2.7630145827637813 gb_cutoff=5.0 gb_epsilon=1.0 gb_sigma=1.0 energy=-0.015295135913478105 pbc="F F F"
X       10.00000000      10.00000000      10.00000000       0.49588828      -0.28907243       0.12204167       0.80971463       0.17652827       0.37219979      -0.65780854      -0.00583081       0.01273250      -0.01529700       1.00000000       1.50000000       2.00000000       0.04800767       0.04737770       0.04682059      -0.01529514
X       11.44155113      11.39879394      11.89724944       0.73559607       0.50950208       0.34771897       0.27999567       0.21652044      -1.23339015       0.31625231      -0.01856414       0.01085574       0.01644154       1.00000000       1.50000000       2.00000000      -0.04800767      -0.04737770      -0.04682059      -0.01529514
2
Properties=species:S:1:pos:R:3:quaternions:R:4:old_torques:R:3:torques:R:3:c_diameter[1]:R:1:c_diameter[2]:R:1:c_diameter[3]:R:1:forces:R:3:energies:R:1 separation_distance=3.0216777592426034 old_energy=-0.6467695350124341 distance=3.0216777629668274 gb_cutoff=5.0 gb_epsilon=1.0 gb_sigma=1.0 energy=-0.005492760486468375 pbc="F F F"
X       10.00000000      10.00000000      10.00000000       0.15937560       0.56292875       0.22436534       0.77934000      -0.06875089      -0.37998474      -0.06492774       0.00115576      -0.00861438       0.00629541       1.00000000       1.50000000       2.00000000       0.00694757       0.01511315       0.01862718      -0.00549276
X       11.52896549      11.75922133      11.92300321       0.76794375      -0.12820259       0.61099329      -0.14322602      -0.06538721       0.26434208       0.28119055       0.00255093      -0.00650574       0.00458976       1.00000000       1.50000000       2.00000000      -0.00694757      -0.01511315      -0.01862718      -0.00549276
2
Properties=species:S:1:pos:R:3:quaternions:R:4:old_torques:R:3:torques:R:3:c_diameter[1]:R:1:c_diameter[2]:R:1:c_diameter[3]:R:1:forces:R:3:energies:R:1 separation_distance=3.2881562284217507 old_energy=-0.21270775550244964 distance=3.288156230278883 gb_cutoff=5.0 gb_epsilon=1.0 gb_sigma=1.0 energy=-0.004932387332862114 pbc="F F F"
X       10.00000000      10.00000000      10.00000000       0.66879048       0.68083251       0.20675647      -0.21549513      -0.13010021      -0.21829087      -0.26604352       0.00456435       0.00169148      -0.00277412       1.00000000       1.50000000       2.00000000       0.01295449       0.01151999       0.01321854      -0.00493239
X       11.95429602      11.95004290      11.78606583       0.34534314      -0.67116390       0.07430053       0.65173351      -0.05978800      -0.73321966      -0.04083329       0.00063692      -0.00438685       0.00002578       1.00000000       1.50000000       2.00000000      -0.01295449      -0.01151999      -0.01321854      -0.00493239
2
Properties=species:S:1:pos:R:3:quaternions:R:4:old_torques:R:3:torques:R:3:c_diameter[1]:R:1:c_diameter[2]:R:1:c_diameter[3]:R:1:forces:R:3:energies:R:1 separation_distance=2.7534490901494433 old_energy=-0.6175211084461036 distance=2.7534490850316407 gb_cutoff=5.0 gb_epsilon=1.0 gb_sigma=1.0 energy=-0.005928343048405179 pbc="F F F"
X       10.00000000      10.00000000      10.00000000       0.04993914      -0.38648058       0.03380781       0.92032379      -0.02440812      -0.04328258       0.07737086       0.00310272      -0.00039387      -0.00386250       1.00000000       1.50000000       2.00000000       0.01811773       0.01053818       0.01657933      -0.00592834
X       11.91551865      11.07217433      11.66214090       0.73358296      -0.49731982      -0.44882687       0.11438300       0.11815504      -0.03398197      -0.01370221      -0.00284272      -0.00124992       0.00462321       1.00000000       1.50000000       2.00000000      -0.01811773      -0.01053818      -0.01657933      -0.00592834
2
Properties=species:S:1:pos:R:3:quaternions:R:4:old_torques:R:3:torques:R:3:c_diameter[1]:R:1:c_diameter[2]:R:1:c_diameter[3]:R:1:forces:R:3:energies:R:1 separation_distance=2.4933774138669578 old_energy=-0.4235376138171428 distance=2.4933774102797073 gb_cutoff=5.0 gb_epsilon=1.0 gb_sigma=1.0 energy=-0.04525301440542456 pbc="F F F"
X       10.00000000      10.00000000      10.00000000       0.72405626      -0.53208208       0.22276829      -0.37816066      -0.01168439       0.37623221      -0.04880224       0.07356497      -0.03875502      -0.03397611       1.00000000       1.50000000       2.00000000       0.15891509       0.07826739       0.23009458      -0.04525301
X       11.33471158      11.21803531      11.71809950       0.49940315      -0.77910830      -0.06791557      -0.37279246      -0.00169908       0.13226678       0.27655577       0.07222718       0.00467706      -0.05512368       1.00000000       1.50000000       2.00000000      -0.15891509      -0.07826739      -0.23009458      -0.04525301
2
Properties=species:S:1:pos:R:3:quaternions:R:4:old_torques:R:3:torques:R:3:c_diameter[1]:R:1:c_diameter[2]:R:1:c_diameter[3]:R:1:forces:R:3:energies:R:1 separation_distance=2.6684228262870335 old_energy=-0.6407567667280456 distance=2.668422827822355 gb_cutoff=5.0 gb_epsilon=1.0 gb_sigma=1.0 energy=-0.011051873689394745 pbc="F F F"
X       10.00000000      10.00000000      10.00000000       0.03195461      -0.42028825       0.21111149       0.88191192       0.05456100      -0.43681409       0.41895517       0.00674658       0.00044535      -0.00821110       1.00000000       1.50000000       2.00000000       0.03171843       0.03296763       0.03270981      -0.01105187
X       11.28517121      11.74527869      11.55654028       0.87505523       0.45210107       0.14839989      -0.08865916      -0.24389763      -1.40722377      -0.31590559      -0.00097428       0.00688795      -0.00477736       1.00000000       1.50000000       2.00000000      -0.03171843      -0.03296763      -0.03270981      -0.01105187
2
Properties=species:S:1:pos:R:3:quaternions:R:4:old_torques:R:3:torques:R:3:c_diameter[1]:R:1:c_diameter[2]:R:1:c_diameter[3]:R:1:forces:R:3:energies:R:1 separation_distance=2.840766934880159 old_energy=-0.5078553309361952 distance=2.840766937179889 gb_cutoff=5.0 gb_epsilon=1.0 gb_sigma=1.0 energy=-0.031037489820504027 pbc="F F F"
X       10.00000000      10.00000000      10.00000000       0.58515580      -0.53506621      -0.03981665      -0.60803904       0.10176912       1.05609821       0.73916307       0.01477620      -0.02009554       0.02448244       1.00000000       1.50000000       2.00000000       0.05554077       0.13104073       0.11820949      -0.03103749
X       11.08081720      11.80198439      11.91171212       0.07806483      -0.25820545      -0.96283966       0.01325217       3.47980876       0.33503865       0.27285319      -0.05227670      -0.00148935       0.01706504       1.00000000       1.50000000       2.00000000      -0.05554077      -0.13104073      -0.11820949      -0.03103749
2
Properties=species:S:1:pos:R:3:quaternions:R:4:old_torques:R:3:torques:R:3:c_diameter[1]:R:1:c_diameter[2]:R:1:c_diameter[3]:R:1:forces:R:3:energies:R:1 separation_distance=2.664524979368891 old_energy=-0.3143419556750908 distance=2.664524983468931 gb_cutoff=5.0 gb_epsilon=1.0 gb_sigma=1.0 energy=-0.01152776756250203 pbc="F F F"
X       10.00000000      10.00000000      10.00000000       0.85137012       0.41252240       0.22296914      -0.23511477      -0.03846634      -0.25923892      -0.20356281      -0.00351749       0.00068795       0.00009498       1.00000000       1.50000000       2.00000000       0.03579311       0.02776083       0.03647853      -0.01152777
X       11.55246928      11.33185425      11.70754115       0.34414746      -0.88141192      -0.23571731      -0.22161430      -0.02257160       0.28593398       0.14764493       0.00469881       0.00379846      -0.00466834       1.00000000       1.50000000       2.00000000      -0.03579311      -0.02776083      -0.03647853      -0.01152777
2
Properties=species:S:1:pos:R:3:quaternions:R:4:old_torques:R:3:torques:R:3:c_diameter[1]:R:1:c_diameter[2]:R:1:c_diameter[3]:R:1:forces:R:3:energies:R:1 separation_distance=3.396645670557967 old_energy=-0.3347884233480018 distance=3.396645673313827 gb_cutoff=5.0 gb_epsilon=1.0 gb_sigma=1.0 energy=-0.002008279229008919 pbc="F F F"
X       10.00000000      10.00000000      10.00000000       0.45079968       0.33559303      -0.09450832       0.82172084      -0.36330469       1.07719190       0.28428209      -0.00091141      -0.00132115       0.00187599       1.00000000       1.50000000       2.00000000       0.00375404       0.00504920       0.00429743      -0.00200828
X       11.99443156      11.98252448      11.90500427       0.78361708       0.02673510      -0.30122292       0.54267326       0.19620687       0.38636271      -0.46138192      -0.00018759      -0.00009830       0.00075181       1.00000000       1.50000000       2.00000000      -0.00375404      -0.00504920      -0.00429743      -0.00200828
2
Properties=species:S:1:pos:R:3:quaternions:R:4:old_torques:R:3:torques:R:3:c_diameter[1]:R:1:c_diameter[2]:R:1:c_diameter[3]:R:1:forces:R:3:energies:R:1 separation_distance=2.9154407246535072 old_energy=-0.499406279727817 distance=2.9154407218109544 gb_cutoff=5.0 gb_epsilon=1.0 gb_sigma=1.0 energy=-0.011326207920302383 pbc="F F F"
X       10.00000000      10.00000000      10.00000000       0.01386254      -0.16268642       0.54354865      -0.82334429      -0.16735483       0.09136183      -0.78256311      -0.00644411       0.01247276       0.00392688       1.00000000       1.50000000       2.00000000       0.03848688       0.01740343       0.03921402      -0.01132621
X       11.80450187      11.13210362      11.99045447       0.47016471       0.56246329      -0.62927417       0.25805854       0.61491815      -0.99641263      -1.05916470       0.01619770      -0.00662815      -0.01609350       1.00000000       1.50000000       2.00000000      -0.03848688      -0.01740343      -0.03921402      -0.01132621
2
Properties=species:S:1:pos:R:3:quaternions:R:4:old_torques:R:3:torques:R:3:c_diameter[1]:R:1:c_diameter[2]:R:1:c_diameter[3]:R:1:forces:R:3:energies:R:1 separation_distance=2.7177094152134353 old_energy=-0.5734569691152185 distance=2.7177094145307987 gb_cutoff=5.0 gb_epsilon=1.0 gb_sigma=1.0 energy=-0.028180418585645614 pbc="F F F"
X       10.00000000      10.00000000      10.00000000       0.48890299      -0.43721758      -0.24176484      -0.71509749       0.53452175       5.89146372       1.38136480       0.04092770      -0.01450386      -0.02105634       1.00000000       1.50000000       2.00000000       0.08546156       0.09068217       0.11436404      -0.02818042
X       11.52682546      11.79809157      11.34967225       0.52427034       0.51133268       0.26994280      -0.62514829       0.14611712       0.22634343       3.03715036       0.04231810      -0.04476496       0.00584447       1.00000000       1.50000000       2.00000000      -0.08546156      -0.09068217      -0.11436404      -0.02818042
2
Properties=species:S:1:pos:R:3:quaternions:R:4:old_torques:R:3:torques:R:3:c_diameter[1]:R:1:c_diameter[2]:R:1:c_diameter[3]:R:1:forces:R:3:energies:R:1 separation_distance=2.3294741453313965 old_energy=-0.845821140078984 distance=2.3294741475846648 gb_cutoff=5.0 gb_epsilon=1.0 gb_sigma=1.0 energy=-0.058262582871803636 pbc="F F F"
X       10.00000000      10.00000000      10.00000000       0.41004447      -0.04835418      -0.71622882       0.56262037      -0.01184742      -0.43061079      -0.25320024       0.07919350      -0.08979831       0.00429764       1.00000000       1.50000000       2.00000000       0.22937821       0.22455002       0.21719422      -0.05826258
X       11.32466955      11.62736073      11.01163108       0.04584084      -0.38557201       0.36553863       0.84593992      -0.06905366       0.31182117       0.27035995       0.04709806       0.03413387      -0.08012416       1.00000000       1.50000000       2.00000000      -0.22937821      -0.22455002      -0.21719422      -0.05826258
2
Properties=species:S:1:pos:R:3:quaternions:R:4:old_torques:R:3:torques:R:3:c_diameter[1]:R:1:c_diameter[2]:R:1:c_diameter[3]:R:1:forces:R:3:energies:R:1 separation_distance=2.615304723044736 old_energy=-0.7798464756595872 distance=2.615304721795416 gb_cutoff=5.0 gb_epsilon=1.0 gb_sigma=1.0 energy=-0.019322045265099775 pbc="F F F"
X       10.00000000      10.00000000      10.00000000       0.36194592       0.45721870       0.78035937      -0.22579961       0.12740365      -3.37821460      -0.46376635       0.02545927       0.01731504      -0.03064234       1.00000000       1.50000000       2.00000000       0.05443683       0.05524210       0.07681400      -0.01932205
X       11.09198749      11.79871419      11.55306451       0.38495284      -0.50251288       0.58642479       0.50536926      -0.03656353       0.05276945       0.78380201       0.02691262      -0.01665106      -0.00695028       1.00000000       1.50000000       2.00000000      -0.05443683      -0.05524210      -0.07681400      -0.01932205
2
Properties=species:S:1:pos:R:3:quaternions:R:4:old_torques:R:3:torques:R:3:c_diameter[1]:R:1:c_diameter[2]:R:1:c_diameter[3]:R:1:forces:R:3:energies:R:1 separation_distance=2.744314529636244 old_energy=-0.21786863219326458 distance=2.7443145293658913 gb_cutoff=5.0 gb_epsilon=1.0 gb_sigma=1.0 energy=-0.02168848652348406 pbc="F F F"
X       10.00000000      10.00000000      10.00000000       0.64202127       0.54386501       0.52170186      -0.14087837       0.00150105       0.09402573      -0.06393801       0.01392612      -0.00161897      -0.01170742       1.00000000       1.50000000       2.00000000       0.06701475       0.06099225       0.08497254      -0.02168849
X       11.74585485      11.60436896      11.38175733       0.60066501       0.12697405      -0.70482564       0.35538703       0.03370577       0.26796682      -0.14790540       0.03812469      -0.05413263       0.01067465       1.00000000       1.50000000       2.00000000      -0.06701475      -0.06099225      -0.08497254      -0.02168849
2
Properties=species:S:1:pos:R:3:quaternions:R:4:old_torques:R:3:torques:R:3:c_diameter[1]:R:1:c_diameter[2]:R:1:c_diameter[3]:R:1:forces:R:3:energies:R:1 separation_distance=2.6662039244411675 old_energy=-0.37547052682011267 distance=2.6662039232114063 gb_cutoff=5.0 gb_epsilon=1.0 gb_sigma=1.0 energy=-0.03025641546735692 pbc="F F F"
X       10.00000000      10.00000000      10.00000000       0.41861133       0.11350643      -0.61595256       0.65763461       0.01326275      -0.02775118       0.35266350       0.01245756      -0.03488912       0.00789022       1.00000000       1.50000000       2.00000000       0.08373386       0.05274743       0.15369105      -0.03025642
X       11.47191863      11.16613157      11.89267960       0.43917855       0.48822068      -0.72184797       0.21839934      -0.13552061       0.39396593       0.45353589       0.06693244      -0.03285023      -0.02789499       1.00000000       1.50000000       2.00000000      -0.08373386      -0.05274743      -0.15369105      -0.03025642
2
Properties=species:S:1:pos:R:3:quaternions:R:4:old_torques:R:3:torques:R:3:c_diameter[1]:R:1:c_diameter[2]:R:1:c_diameter[3]:R:1:forces:R:3:energies:R:1 separation_distance=3.117610103813841 old_energy=-0.6207360990894291 distance=3.1176101103010163 gb_cutoff=5.0 gb_epsilon=1.0 gb_sigma=1.0 energy=-0.010723344641338652 pbc="F F F"
X       10.00000000      10.00000000      10.00000000       0.01741259      -0.52008388      -0.82125388       0.23399065      -0.43995439       0.42890343       0.18285139      -0.01570206       0.00829947       0.00732866       1.00000000       1.50000000       2.00000000       0.03368357       0.03941696       0.01488676      -0.01072334
X       11.95508360      11.95591428      11.43928463       0.58592004      -0.14975627       0.16641216       0.77883102       0.01940797      -0.00881813      -0.18115708      -0.01191294       0.01107592       0.00385261       1.00000000       1.50000000       2.00000000      -0.03368357      -0.03941696      -0.01488676      -0.01072334
2
Properties=species:S:1:pos:R:3:quaternions:R:4:old_torques:R:3:torques:R:3:c_diameter[1]:R:1:c_diameter[2]:R:1:c_diameter[3]:R:1:forces:R:3:energies:R:1 separation_distance=2.304892072681064 old_energy=-0.7560060370120186 distance=2.3048920730380567 gb_cutoff=5.0 gb_epsilon=1.0 gb_sigma=1.0 energy=-0.0714713514942395 pbc="F F F"
X       10.00000000      10.00000000      10.00000000       0.53014867      -0.15955872      -0.51990841       0.65052183      -0.01794590       0.60857743      -1.16444772      -0.06114427      -0.07627810       0.04541622       1.00000000       1.50000000       2.00000000       0.14607003       0.23462285       0.40296201      -0.07147135
X       11.14544991      11.03063211      11.71413810       0.32828827      -0.56132450       0.07170894      -0.75630645       1.00097765       6.41007433       3.08447881       0.07427389      -0.13491049       0.07278804       1.00000000       1.50000000       2.00000000      -0.14607003      -0.23462285      -0.40296201      -0.07147135
2
Properties=species:S:1:pos:R:3:quaternions:R:4:old_torques:R:3:torques:R:3:c_diameter[1]:R:1:c_diameter[2]:R:1:c_diameter[3]:R:1:forces:R:3:energies:R:1 separation_distance=2.7892669518500735 old_energy=-0.43008008528581076 distance=2.789266955484427 gb_cutoff=5.0 gb_epsilon=1.0 gb_sigma=1.0 energy=-0.007763066924842614 pbc="F F F"
X       10.00000000      10.00000000      10.00000000       0.22044687      -0.97226713      -0.05656985      -0.05384845       0.31421560       1.12797503      -0.46558085       0.00273973       0.00078393      -0.00902650       1.00000000       1.50000000       2.00000000       0.02350281       0.02549979       0.01264634      -0.00776307
X       11.57082064      11.94221026      11.24110917       0.09711120       0.44469740      -0.88855379      -0.05732184      -0.00063517      -0.02889315       0.33374284      -0.00982589       0.00852048       0.00343470       1.00000000       1.50000000       2.00000000      -0.02350281      -0.02549979      -0.01264634      -0.00776307
