2
Properties=species:S:1:pos:R:3:quaternions:R:4:old_torques:R:3:torques:R:3:c_diameter[1]:R:1:c_diameter[2]:R:1:c_diameter[3]:R:1:forces:R:3:energies:R:1 separation_distance=2.5575968450258197 old_energy=-0.8228931179322744 distance=2.557596839154919 gb_cutoff=5.0 gb_epsilon=1.0 gb_sigma=1.0 energy=-0.01494101022903691 pbc="F F F"
X       10.00000000      10.00000000      10.00000000       0.43817332       0.47737924      -0.51508497      -0.56107101       0.15359696      -2.49624015      -0.54085258      -0.01436109       0.00115716       0.01062593       1.00000000       1.50000000       2.00000000       0.02732479       0.06297710       0.04054958      -0.01494101
X       11.25298897      11.73807107      11.39657767       0.47868462      -0.25170180      -0.43522949       0.71977950       0.02310593      -0.18039995       0.08600051      -0.00311327      -0.01380414       0.02079125       1.00000000       1.50000000       2.00000000      -0.02732479      -0.06297710      -0.04054958      -0.01494101
2
Properties=species:S:1:pos:R:3:quaternions:R:4:old_torques:R:3:torques:R:3:c_diameter[1]:R:1:c_diameter[2]:R:1:c_diameter[3]:R:1:forces:R:3:energies:R:1 separation_distance=2.6839093215540526 old_energy=-0.42487271485322514 distance=2.6839093227856594 gb_cutoff=5.0 gb_epsilon=1.0 gb_sigma=1.0 energy=-0.021346841503032257 pbc="F F F"
X       10.00000000      10.00000000      10.00000000       0.22846394       0.72017286      -0.65158377      -0.06777806      -0.06251553       0.12306730       0.55644454      -0.04037586       0.01859180       0.02397211       1.00000000       1.50000000       2.00000000       0.06720975       0.08571279       0.05263620      -0.02134684
X       11.60102728      11.78092115      11.21177587       0.66463871       0.36667118       0.40318832      -0.51112308       0.03522775       0.23628793      -0.42793741       0.03025209      -0.02142063      -0.00643887       1.00000000       1.50000000       2.00000000      -0.06720975      -0.08571279      -0.05263620      -0.02134684
2
Properties=species:S:1:pos:R:3:quaternions:R:4:old_torques:R:3:torques:R:3:c_diameter[1]:R:1:c_diameter[2]:R:1:c_diameter[3]:R:1:forces:R:3:energies:R:1 separation_distance=3.2512464657055102 old_energy=-0.2885023002858757 distance=3.2512464664247127 gb_cutoff=5.0 gb_epsilon=1.0 gb_sigma=1.0 energy=-0.0030082932602971454 pbc="F F F"
X       10.00000000      10.00000000      10.00000000       0.46802272      -0.66963551      -0.57297643      -0.06512314      -0.39359456       0.30020815       0.24757135       0.00002039      -0.00051030       0.00152086       1.00000000       1.50000000       2.00000000       0.00684392       0.00776837       0.00664626      -0.00300829
X       11.75508575      11.99903434      11.86926170       0.58951259      -0.50841202       0.03338041       0.62679971      -0.27469095      -0.57009725      -0.28160377      -0.00125540       0.00163862      -0.00156794       1.00000000       1.50000000       2.00000000      -0.00684392      -0.00776837      -0.00664626      -0.00300829
2
Properties=species:S:1:pos:R:3:quaternions:R:4:old_torques:R:3:torques:R:3:c_diameter[1]:R:1:c_diameter[2]:R:1:c_diameter[3]:R:1:forces:R:3:energies:R:1 separation_distance=2.731363961277153 old_energy=-0.665907455283951 distance=2.731363959698126 gb_cutoff=5.0 gb_epsilon=1.0 gb_sigma=1.0 energy=-0.007986778420748505 pbc="F F F"
X       10.00000000      10.00000000      10.00000000       0.07985880      -0.07101134       0.81453309      -0.57018928      -0.61309514       1.18584498      -1.21598631       0.00047032       0.00987566      -0.00353827       1.00000000       1.50000000       2.00000000       0.02802240       0.00949893       0.02443522      -0.00798678
X       11.83706094      11.00162631      11.75564829       0.00431299      -0.36964051      -0.35143161       0.86014134      -0.06962186       1.80224789      -0.50281340       0.00732786      -0.00556716      -0.00707960       1.00000000       1.50000000       2.00000000      -0.02802240      -0.00949893      -0.02443522      -0.00798678
2
Properties=species:S:1:pos:R:3:quaternions:R:4:old_torques:R:3:torques:R:3:c_diameter[1]:R:1:c_diameter[2]:R:1:c_diameter[3]:R:1:forces:R:3:energies:R:1 separation_distance=2.722004823326213 old_energy=-0.6299899242674917 distance=2.7220048194887494 gb_cutoff=5.0 gb_epsilon=1.0 gb_sigma=1.0 energy=-0.014760329001090788 pbc="F F F"
X       10.00000000      10.00000000      10.00000000       0.18612386      -0.93204089       0.25796309      -0.17353020      -1.13668400      -3.99901613       1.71199067       0.00684274       0.01709491      -0.00831913       1.00000000       1.50000000       2.00000000       0.05117216       0.02721145       0.05266645      -0.01476033
X       11.59244609      11.01821230      11.95874179       0.81552600       0.45319937       0.22798054      -0.27848258      -0.21142740      -0.51114926       2.05327706      -0.00651732      -0.00073036      -0.00045222       1.00000000       1.50000000       2.00000000      -0.05117216      -0.02721145      -0.05266645      -0.01476033
2
Properties=species:S:1:pos:R:3:quaternions:R:4:old_torques:R:3:torques:R:3:c_diameter[1]:R:1:c_diameter[2]:R:1:c_diameter[3]:R:1:forces:R:3:energies:R:1 separation_distance=2.6245688033682266 old_energy=-0.6107703571592039 distance=2.624568802263596 gb_cutoff=5.0 gb_epsilon=1.0 gb_sigma=1.0 energy=-0.012179862457814527 pbc="F F F"
X       10.00000000      10.00000000      10.00000000       0.02206474       0.92390297       0.34229928      -0.16955131      -0.23489091      -3.87191811       0.88161518      -0.02199398       0.02075090      -0.00013343       1.00000000       1.50000000       2.00000000       0.03952566       0.04545513       0.01816808      -0.01217986
X       11.50391147      11.89650852      11.01482369       0.71343050      -0.50133776      -0.48757399      -0.04414715       0.09687137      -0.20200815      -3.06234277       0.01032096      -0.00796251      -0.00646683       1.00000000       1.50000000       2.00000000      -0.03952566      -0.04545513      -0.01816808      -0.01217986
2
Properties=species:S:1:pos:R:3:quaternions:R:4:old_torques:R:3:torques:R:3:c_diameter[1]:R:1:c_diameter[2]:R:1:c_diameter[3]:R:1:forces:R:3:energies:R:1 separation_distance=2.5896663473255157 old_energy=-0.7238325083123838 distance=2.589666348284176 gb_cutoff=5.0 gb_epsilon=1.0 gb_sigma=1.0 energy=-0.020889235706555234 pbc="F F F"
X       10.00000000      10.00000000      10.00000000       0.78013456       0.55502242       0.23657210      -0.16545034       0.01215813      -0.11009295      -0.05354699      -0.00288416       0.01980954      -0.00492877       1.00000000       1.50000000       2.00000000       0.09013449       0.04189121       0.06606605      -0.02088924
X       11.47657452      11.13668741      11.79834402       0.93482701      -0.34698596      -0.07035532      -0.02737400       0.11782121      -0.20589280       0.12503942       0.00264579       0.04473184      -0.03567047       1.00000000       1.50000000       2.00000000      -0.09013449      -0.04189121      -0.06606605      -0.02088924
2
Properties=species:S:1:pos:R:3:quaternions:R:4:old_torques:R:3:torques:R:3:c_diameter[1]:R:1:c_diameter[2]:R:1:c_diameter[3]:R:1:forces:R:3:energies:R:1 separation_distance=2.98417180302835 old_energy=-0.5123520482861137 distance=2.984171806335408 gb_cutoff=5.0 gb_epsilon=1.0 gb_sigma=1.0 energy=-0.0181241960938818 pbc="F F F"
X       10.00000000      10.00000000      10.00000000       0.18891149       0.56803749      -0.78828931       0.14228779      -0.30683374       1.26425802      -1.30154944      -0.02654527       0.02846262      -0.00188147       1.00000000       1.50000000       2.00000000       0.06346713       0.05594643       0.05209011      -0.01812420
X       11.98815283      11.50524599      11.63913520       0.16143203       0.76903002       0.06466925      -0.61510196      -2.09107983       0.30245055      -0.20454876       0.01324993      -0.02799451       0.01757787       1.00000000       1.50000000       2.00000000      -0.06346713      -0.05594643      -0.05209011      -0.01812420
2
Properties=species:S:1:pos:R:3:quaternions:R:4:old_torques:R:3:torques:R:3:c_diameter[1]:R:1:c_diameter[2]:R:1:c_diameter[3]:R:1:forces:R:3:energies:R:1 separation_distance=2.5875032369908224 old_energy=-0.44182338012391714 distance=2.5875032346732865 gb_cutoff=5.0 gb_epsilon=1.0 gb_sigma=1.0 energy=-0.08622586607647197 pbc="F F F"
X       10.00000000      10.00000000      10.00000000       0.82136874      -0.47895892       0.01382906      -0.30945193      -0.00498908      -0.09182692       0.06180253       0.03211848       0.10471339      -0.22481871       1.00000000       1.50000000       2.00000000       0.48400201       0.31837122       0.19849492      -0.08622587
X       11.46791043      11.77925394      11.17246210       0.24245431       0.01377519      -0.89623568       0.37119774      -0.13870888      -0.82297536      -0.32025031      -0.05222379       0.17138785      -0.16900333       1.00000000       1.50000000       2.00000000      -0.48400201      -0.31837122      -0.19849492      -0.08622587
2
Properties=species:S:1:pos:R:3:quaternions:R:4:old_torques:R:3:torques:R:3:c_diameter[1]:R:1:c_diameter[2]:R:1:c_diameter[3]:R:1:forces:R:3:energies:R:1 separation_distance=3.1041028471271326 old_energy=-0.3000713803945802 distance=3.1041028459725015 gb_cutoff=5.0 gb_epsilon=1.0 gb_sigma=1.0 energy=-0.005534299970418918 pbc="F F F"
X       10.00000000      10.00000000      10.00000000       0.57147132       0.56672224       0.54510611       0.23474618       0.06641968      -0.42464366       0.21688854      -0.00583727       0.00119226       0.00216692       1.00000000       1.50000000       2.00000000       0.01380742       0.01824564       0.00998657      -0.00553430
X       11.76819007      11.94857099      11.64682405       0.10972415      -0.45844396       0.28525218      -0.83451839      -0.34699497      -0.16884694      -0.22270785      -0.00475054       0.00388797       0.00319010       1.00000000       1.50000000       2.00000000      -0.01380742      -0.01824564      -0.00998657      -0.00553430
2
Properties=species:S:1:pos:R:3:quaternions:R:4:old_torques:R:3:torques:R:3:c_diameter[1]:R:1:c_diameter[2]:R:1:c_diameter[3]:R:1:forces:R:3:energies:R:1 separation_distance=2.7791871700516486 old_energy=-0.634945687057953 distance=2.779187165936999 gb_cutoff=5.0 gb_epsilon=1.0 gb_sigma=1.0 energy=-0.008230365188664763 pbc="F F F"
X       10.00000000      10.00000000      10.00000000       0.12438567       0.47514886      -0.86797024      -0.07341270       0.00540894      -0.50797441       0.05645895      -0.01552554       0.01025762       0.00451300       1.00000000       1.50000000       2.00000000       0.02351821       0.02546469       0.01960174      -0.00823037
X       11.62757265      11.40323647      11.76233254       0.53412856       0.08721609       0.22606890      -0.80993388      -0.05472616      -0.01496039      -0.48169390      -0.00184583      -0.00071398       0.00393103       1.00000000       1.50000000       2.00000000      -0.02351821      -0.02546469      -0.01960174      -0.00823037
2
Properties=species:S:1:pos:R:3:quaternions:R:4:old_torques:R:3:torques:R:3:c_diameter[1]:R:1:c_diameter[2]:R:1:c_diameter[3]:R:1:forces:R:3:energies:R:1 separation_distance=2.740702720227509 old_energy=-0.54842115169848 distance=2.7407027187088455 gb_cutoff=5.0 gb_epsilon=1.0 gb_sigma=1.0 energy=-0.012086402700590942 pbc="F F F"
X       10.00000000      10.00000000      10.00000000       0.16908964       0.32305586      -0.93078035       0.02629737      -0.05264512      -0.52890301      -0.33956074      -0.01995793       0.02552962       0.00044284       1.00000000       1.50000000       2.00000000       0.04416862       0.03239420       0.03025180      -0.01208640
X       11.85763413      11.21198365      11.60988896       0.19600643      -0.58672205       0.65807797       0.42926926       0.09068853      -1.60227189       0.15613579       0.00447154      -0.01061982       0.00620209       1.00000000       1.50000000       2.00000000      -0.04416862      -0.03239420      -0.03025180      -0.01208640
2
Properties=species:S:1:pos:R:3:quaternions:R:4:old_torques:R:3:torques:R:3:c_diameter[1]:R:1:c_diameter[2]:R:1:c_diameter[3]:R:1:forces:R:3:energies:R:1 separation_distance=2.678759841031761 old_energy=-0.218963438367011 distance=2.6787598451681296 gb_cutoff=5.0 gb_epsilon=1.0 gb_sigma=1.0 energy=-0.013837380370107967 pbc="F F F"
X       10.00000000      10.00000000      10.00000000       0.12545003      -0.87372586      -0.34595422      -0.31808975      -0.01247639       0.13220725       0.03924170       0.01441390      -0.00337089      -0.00499870       1.00000000       1.50000000       2.00000000       0.03349359       0.05570665       0.03370714      -0.01383738
X       11.53869319      11.81912722      11.22431766       0.80179543      -0.23602336       0.27767520      -0.47361750       0.03012956       0.24564836      -0.08871724      -0.02129896      -0.00748727       0.02978504       1.00000000       1.50000000       2.00000000      -0.03349359      -0.05570665      -0.03370714      -0.01383738
2
Properties=species:S:1:pos:R:3:quaternions:R:4:old_torques:R:3:torques:R:3:c_diameter[1]:R:1:c_diameter[2]:R:1:c_diameter[3]:R:1:forces:R:3:energies:R:1 separation_distance=2.9998278648656487 old_energy=-0.13953086555825606 distance=2.9998278580367135 gb_cutoff=5.0 gb_epsilon=1.0 gb_sigma=1.0 energy=-0.003736235886293435 pbc="F F F"
X       10.00000000      10.00000000      10.00000000       0.17113905       0.39056869      -0.55875547      -0.71130855       0.00154821       0.09148091      -0.02963909      -0.00042219       0.00147365      -0.00125458       1.00000000       1.50000000       2.00000000       0.00778635       0.00999400       0.00900882      -0.00373624
X       11.44459343      11.77087264      11.94322595       0.36683280       0.38337627      -0.57797088      -0.62000484      -0.03248079       0.28973075       0.08194065      -0.00304495       0.00064291       0.00190321       1.00000000       1.50000000       2.00000000      -0.00778635      -0.00999400      -0.00900882      -0.00373624
2
Properties=species:S:1:pos:R:3:quaternions:R:4:old_torques:R:3:torques:R:3:c_diameter[1]:R:1:c_diameter[2]:R:1:c_diameter[3]:R:1:forces:R:3:energies:R:1 separation_distance=2.530022075107417 old_energy=-0.4344524810158721 distance=2.5300220763650207 gb_cutoff=5.0 gb_epsilon=1.0 gb_sigma=1.0 energy=-0.0239123475721814 pbc="F F F"
X       10.00000000      10.00000000      10.00000000       0.41673454      -0.40772707      -0.29287616       0.75783541       0.01554852      -0.75218410       0.01107445      -0.00898178       0.00038050       0.01442731       1.00000000       1.50000000       2.00000000       0.05197738       0.08968710       0.08808863      -0.02391235
X       11.25709659      11.44411580      11.65385895       0.55085700      -0.14020684      -0.43895086       0.69585972      -0.01428349       0.50191618       0.02071907      -0.01213784      -0.02515316       0.02325668       1.00000000       1.50000000       2.00000000      -0.05197738      -0.08968710      -0.08808863      -0.02391235
2
Properties=species:S:1:pos:R:3:quaternions:R:4:old_torques:R:3:torques:R:3:c_diameter[1]:R:1:c_diameter[2]:R:1:c_diameter[3]:R:1:forces:R:3:energies:R:1 separation_distance=2.99191153802406 old_energy=-0.5043909622198033 distance=2.991911534303261 gb_cutoff=5.0 gb_epsilon=1.0 gb_sigma=1.0 energy=-0.006564094320619464 pbc="F F F"
X       10.00000000      10.00000000      10.00000000       0.03627914      -0.49470089       0.82444507       0.27247968       0.17050108      -1.02364806       0.29972708      -0.00482822       0.00214366       0.00551951       1.00000000       1.50000000       2.00000000       0.02042034       0.01782514       0.01430837      -0.00656409
X       11.74062689      11.89721578      11.52391763       0.05767849      -0.06167198      -0.73987292       0.66742627       0.21172914      -1.49609185       0.17631126       0.00481024       0.00406972      -0.01323439       1.00000000       1.50000000       2.00000000      -0.02042034      -0.01782514      -0.01430837      -0.00656409
2
Properties=species:S:1:pos:R:3:quaternions:R:4:old_torques:R:3:torques:R:3:c_diameter[1]:R:1:c_diameter[2]:R:1:c_diameter[3]:R:1:forces:R:3:energies:R:1 separation_distance=2.3741752337827515 old_energy=-0.9064433943618977 distance=2.37417523204393 gb_cutoff=5.0 gb_epsilon=1.0 gb_sigma=1.0 energy=-0.06258794470444155 pbc="F F F"
X       10.00000000      10.00000000      10.00000000       0.38254981       0.32422617      -0.83223938       0.23645431      -0.03277157       0.57974876      -0.12016807       0.14449381      -0.13874354      -0.00203866       1.00000000       1.50000000       2.00000000       0.11402895       0.12748771       0.39313585      -0.06258794
X       11.11943563      11.08190824      11.79249727       0.52288030       0.29549238      -0.58669412       0.54320389       0.10205573      -1.41751713      -0.55695745       0.05232173      -0.09695015       0.02138408       1.00000000       1.50000000       2.00000000      -0.11402895      -0.12748771      -0.39313585      -0.06258794
2
Properties=species:S:1:pos:R:3:quaternions:R:4:old_torques:R:3:torques:R:3:c_diameter[1]:R:1:c_diameter[2]:R:1:c_diameter[3]:R:1:forces:R:3:energies:R:1 separation_distance=3.0221065212964713 old_energy=-0.5185132591584894 distance=3.0221065227413644 gb_cutoff=5.0 gb_epsilon=1.0 gb_sigma=1.0 energy=-0.011983322864236078 pbc="F F F"
X       10.00000000      10.00000000      10.00000000       0.93858366      -0.05158570       0.20566338      -0.27221719       0.02136976      -0.41019801      -0.08754494      -0.01398102      -0.00655853       0.01747729       1.00000000       1.50000000       2.00000000       0.01764722       0.05180099       0.03172034      -0.01198332
X       11.56340955      11.92545127      11.72670664       0.30675597      -0.45007856      -0.75694892       0.36105178      -0.75925645      -0.93593743      -0.42582896      -0.01438813      -0.01256178       0.02953002       1.00000000       1.50000000       2.00000000      -0.01764722      -0.05180099      -0.03172034      -0.01198332
2
Properties=species:S:1:pos:R:3:quaternions:R:4:old_torques:R:3:torques:R:3:c_diameter[1]:R:1:c_diameter[2]:R:1:c_diameter[3]:R:1:forces:R:3:energies:R:1 separation_distance=3.133428876287882 old_energy=-0.5507926878990561 distance=3.1334288732449562 gb_cutoff=5.0 gb_epsilon=1.0 gb_sigma=1.0 energy=-0.005205058806622995 pbc="F F F"
X       10.00000000      10.00000000      10.00000000       0.47318039      -0.24955414       0.82354786       0.18865834      -0.55516243      -0.74016543      -0.36093400       0.00668500      -0.00551996       0.00013142       1.00000000       1.50000000       2.00000000       0.01363103       0.01421161       0.01248880      -0.00520506
X       11.87285661      11.96538138      11.56462796       0.19328762       0.09909577      -0.11302286       0.96955957      -0.13176859       0.35126144       0.40889305      -0.00437562       0.00345772      -0.00030529       1.00000000       1.50000000       2.00000000      -0.01363103      -0.01421161      -0.01248880      -0.00520506
2
Properties=species:S:1:pos:R:3:quaternions:R:4:old_torques:R:3:torques:R:3:c_diameter[1]:R:1:c_diameter[2]:R:1:c_diameter[3]:R:1:forces:R:3:energies:R:1 separation_distance=3.1430930279122813 old_energy=-0.543591079604109 distance=3.143093030674256 gb_cutoff=5.0 gb_epsilon=1.0 gb_sigma=1.0 energy=-0.0039060330665815 pbc="F F F"
X       10.00000000      10.00000000      10.00000000       0.28965749       0.09426364       0.83621905       0.45601601       0.21659561       0.09801896      -0.18150707       0.00433579      -0.00041262      -0.00223314       1.00000000       1.50000000       2.00000000       0.00926345       0.00868866       0.01069795      -0.00390603
X       11.84616180      11.71478376      11.87889251       0.22123935      -0.61542875       0.67763149       0.33632746       0.01168486      -0.49041010       0.01549974      -0.00231619      -0.00193250       0.00238901       1.00000000       1.50000000       2.00000000      -0.00926345      -0.00868866      -0.01069795      -0.00390603
2
Properties=species:S:1:pos:R:3:quaternions:R:4:old_torques:R:3:torques:R:3:c_diameter[1]:R:1:c_diameter[2]:R:1:c_diameter[3]:R:1:forces:R:3:energies:R:1 separation_distance=2.8017732654946723 old_energy=-0.6595307565532856 distance=2.801773265963764 gb_cutoff=5.0 gb_epsilon=1.0 gb_sigma=1.0 energy=-0.033191728161619756 pbc="F F F"
X       10.00000000      10.00000000      10.00000000       0.16082342      -0.35707956       0.04689761      -0.91892907      -0.06331941      -0.02802943       0.00613926      -0.05311275       0.02180014       0.02262321       1.00000000       1.50000000       2.00000000       0.07608468       0.16631002       0.08095733      -0.03319173
X       11.24655857      11.99093785      11.52715148       0.47800475       0.35447473      -0.79860898       0.08990452       0.01331069       0.02438347      -0.00007235      -0.03968683      -0.00652536       0.03321208       1.00000000       1.50000000       2.00000000      -0.07608468      -0.16631002      -0.08095733      -0.03319173
2
Properties=species:S:1:pos:R:3:quaternions:R:4:old_torques:R:3:torques:R:3:c_diameter[1]:R:1:c_diameter[2]:R:1:c_diameter[3]:R:1:forces:R:3:energies:R:1 separation_distance=2.90168168338415 old_energy=-0.36857337037490273 distance=2.9016816824840164 gb_cutoff=5.0 gb_epsilon=1.0 gb_sigma=1.0 energy=-0.03201716217087601 pbc="F F F"
X       10.00000000      10.00000000      10.00000000       0.27012920       0.16787149      -0.81160851       0.49004184       0.06182491      -0.13459300       0.33534017       0.02513118       0.02162614      -0.03734343       1.00000000       1.50000000       2.00000000       0.12504401       0.09173726       0.10920883      -0.03201716
X       11.74521902      11.44311760      11.81421574       0.83887647       0.04361797       0.40059686       0.36593155       0.13189932      -0.07044590       0.44075687      -0.03396118       0.01463734       0.01699184       1.00000000       1.50000000       2.00000000      -0.12504401      -0.09173726      -0.10920883      -0.03201716
2
Properties=species:S:1:pos:R:3:quaternions:R:4:old_torques:R:3:torques:R:3:c_diameter[1]:R:1:c_diameter[2]:R:1:c_diameter[3]:R:1:forces:R:3:energies:R:1 separation_distance=2.8931630262214982 old_energy=-0.3571253129865675 distance=2.8931630315396846 gb_cutoff=5.0 gb_epsilon=1.0 gb_sigma=1.0 energy=-0.004376687372266323 pbc="F F F"
X       10.00000000      10.00000000      10.00000000       0.85604905      -0.08949589      -0.48439543       0.15662561       0.36025935       0.46137193      -0.48987073       0.00192654       0.00083828      -0.00185672       1.00000000       1.50000000       2.00000000       0.00716647       0.01203545       0.01263600      -0.00437669
X       11.21082164      11.79425604      11.91962198       0.72646304       0.07969882       0.41757793      -0.53993353      -0.02461802      -0.20442930      -0.19087147      -0.00235782      -0.00238131       0.00357101       1.00000000       1.50000000       2.00000000      -0.00716647      -0.01203545      -0.01263600      -0.00437669
2
Properties=species:S:1:pos:R:3:quaternions:R:4:old_torques:R:3:torques:R:3:c_diameter[1]:R:1:c_diameter[2]:R:1:c_diameter[3]:R:1:forces:R:3:energies:R:1 separation_distance=3.1387439459472377 old_energy=-0.2234946406261488 distance=3.1387439427179915 gb_cutoff=5.0 gb_epsilon=1.0 gb_sigma=1.0 energy=-0.004674366173379367 pbc="F F F"
X       10.00000000      10.00000000      10.00000000       0.53686147       0.55163750       0.60486285       0.20400186      -0.06139319       0.25624470       0.22945583      -0.00318598      -0.00031084       0.00227252       1.00000000       1.50000000       2.00000000       0.01172109       0.01209053       0.01178249      -0.00467437
X       11.56816900      11.84882262      11.99359335       0.14224152       0.12013900      -0.62169766      -0.76080614       0.19157873       0.68897478      -0.18387237       0.00086611       0.00520099      -0.00498274       1.00000000       1.50000000       2.00000000      -0.01172109      -0.01209053      -0.01178249      -0.00467437
2
Properties=species:S:1:pos:R:3:quaternions:R:4:old_torques:R:3:torques:R:3:c_diameter[1]:R:1:c_diameter[2]:R:1:c_diameter[3]:R:1:forces:R:3:energies:R:1 separation_distance=2.795436498724365 old_energy=-0.5553340502355479 distance=2.795436498250495 gb_cutoff=5.0 gb_epsilon=1.0 gb_sigma=1.0 energy=-0.006920026206117372 pbc="F F F"
X       10.00000000      10.00000000      10.00000000       0.01850227      -0.88054047      -0.47007661      -0.05774194      -0.18196460       1.26139964       0.24354304      -0.00197192       0.00165057      -0.00032088       1.00000000       1.50000000       2.00000000       0.01845379       0.02486374       0.00975522      -0.00692003
X       11.69241788      11.86672059      11.21059538       0.38435274       0.39169658      -0.78396551      -0.29024962      -0.12489926       1.44416702       0.13019399      -0.00991774       0.00417960       0.00795265       1.00000000       1.50000000       2.00000000      -0.01845379      -0.02486374      -0.00975522      -0.00692003
2
Properties=species:S:1:pos:R:3:quaternions:R:4:old_torques:R:3:torques:R:3:c_diameter[1]:R:1:c_diameter[2]:R:1:c_diameter[3]:R:1:forces:R:3:energies:R:1 separation_distance=3.2300286741936026 old_energy=-0.5916399066770169 distance=3.230028674016605 gb_cutoff=5.0 gb_epsilon=1.0 gb_sigma=1.0 energy=-0.010318937749060446 pbc="F F F"
X       10.00000000      10.00000000      10.00000000       0.07510522      -0.69242981      -0.49615359       0.51839346      -0.18276484       0.37821834       0.00340299      -0.01382386       0.00320038       0.01432252       1.00000000       1.50000000       2.00000000       0.02909819       0.04032536       0.01737195      -0.01031894
X       11.91303189      11.94394016      11.73045973       0.30956688       0.35275652      -0.88286149      -0.01693426      -0.03206752       0.16333550      -0.08834275      -0.02218752       0.01391975       0.00625605       1.00000000       1.50000000       2.00000000      -0.02909819      -0.04032536      -0.01737195      -0.01031894
2
Properties=species:S:1:pos:R:3:quaternions:R:4:old_torques:R:3:torques:R:3:c_diameter[1]:R:1:c_diameter[2]:R:1:c_diameter[3]:R:1:forces:R:3:energies:R:1 separation_distance=2.6356379424739456 old_energy=-0.38488152561902467 distance=2.6356379425310723 gb_cutoff=5.0 gb_epsilon=1.0 gb_sigma=1.0 energy=-0.011351377222947238 pbc="F F F"
X       10.00000000      10.00000000      10.00000000       0.10032036       0.88738807       0.36361803       0.26506635       0.00160239      -0.20687187      -0.16991970      -0.00699698       0.00292018       0.00501955       1.00000000       1.50000000       2.00000000       0.04043679       0.02730295       0.03109354      -0.01135138
X       11.74978230      11.46401480      11.31966281       0.42906373      -0.39006668       0.46893307       0.66622374      -0.14640830      -0.49998112      -0.48142855       0.01648769      -0.00396419      -0.01644539       1.00000000       1.50000000       2.00000000      -0.04043679      -0.02730295      -0.03109354      -0.01135138
2
Properties=species:S:1:pos:R:3:quaternions:R:4:old_torques:R:3:torques:R:3:c_diameter[1]:R:1:c_diameter[2]:R:1:c_diameter[3]:R:1:forces:R:3:energies:R:1 separation_distance=3.0536550201085038 old_energy=-0.21539405854438806 distance=3.053655017310432 gb_cutoff=5.0 gb_epsilon=1.0 gb_sigma=1.0 energy=-0.005686770910239829 pbc="F F F"
X       10.00000000      10.00000000      10.00000000       0.72564074       0.24083216      -0.51322733       0.38992703       0.09048049       0.67558944      -0.12659547       0.00388358      -0.00566553       0.00111183       1.00000000       1.50000000       2.00000000       0.01324056       0.01189707       0.01908574      -0.00568677
X       11.81840199      11.75954254      11.70945407       0.47269410       0.40413643      -0.62114464       0.47687878      -0.01882514       0.03955822       0.21952997       0.00936109      -0.00640589      -0.00277550       1.00000000       1.50000000       2.00000000      -0.01324056      -0.01189707      -0.01908574      -0.00568677
2
Properties=species:S:1:pos:R:3:quaternions:R:4:old_torques:R:3:torques:R:3:c_diameter[1]:R:1:c_diameter[2]:R:1:c_diameter[3]:R:1:forces:R:3:energies:R:1 separation_distance=3.0490930363345994 old_energy=-0.5745867369059582 distance=3.0490930375119296 gb_cutoff=5.0 gb_epsilon=1.0 gb_sigma=1.0 energy=-0.006835956787861773 pbc="F F F"
X       10.00000000      10.00000000      10.00000000       0.02297789      -0.42207097      -0.86075646      -0.28359555       0.01240700       0.05737100      -0.00644820      -0.00295230      -0.00183269       0.00214912       1.00000000       1.50000000       2.00000000       0.01763396       0.01818684       0.01861184      -0.00683596
X       11.62422737      11.82071572      11.82861917       0.22313853      -0.94198223       0.14589328      -0.20394566      -0.07375267      -0.62568415       0.20871136       0.00358237       0.00384862      -0.00471598       1.00000000       1.50000000       2.00000000      -0.01763396      -0.01818684      -0.01861184      -0.00683596
2
Properties=species:S:1:pos:R:3:quaternions:R:4:old_torques:R:3:torques:R:3:c_diameter[1]:R:1:c_diameter[2]:R:1:c_diameter[3]:R:1:forces:R:3:energies:R:1 separation_distance=3.0485510601852344 old_energy=-0.20771297423442117 distance=3.0485510603257193 gb_cutoff=5.0 gb_epsilon=1.0 gb_sigma=1.0 energy=-0.004846833204676646 pbc="F F F"
X       10.00000000      10.00000000      10.00000000       0.34141068      -0.15369463       0.64395178       0.66719024       0.12230676       0.22388760      -0.28872192       0.00628463       0.00090208      -0.00552991       1.00000000       1.50000000       2.00000000       0.01400497       0.00650729       0.01494575      -0.00484683
X       11.96891260      11.49653919      11.78253112       0.44657689      -0.66422914      -0.31990672      -0.50697971       0.05580103      -0.51362511       0.07409507       0.00448283      -0.00536466      -0.00261680       1.00000000       1.50000000       2.00000000      -0.01400497      -0.00650729      -0.01494575      -0.00484683
2
Properties=species:S:1:pos:R:3:quaternions:R:4:old_torques:R:3:torques:R:3:c_diameter[1]:R:1:c_diameter[2]:R:1:c_diameter[3]:R:1:forces:R:3:energies:R:1 separation_distance=2.848277154615087 old_energy=-0.4965058599866587 distance=2.8482771522100707 gb_cutoff=5.0 gb_epsilon=1.0 gb_sigma=1.0 energy=-0.014010592970757997 pbc="F F F"
X       10.00000000      10.00000000      10.00000000       0.54669476      -0.59683666       0.39532350      -0.43431575       0.07201590      -6.52031529      -0.18903927      -0.00717083      -0.01690759       0.01297820       1.00000000       1.50000000       2.00000000       0.02820632       0.04267395       0.05222012      -0.01401059
X       11.42848713      11.63064276      11.84746081       0.74699038       0.18017526      -0.60631037      -0.20476811      -0.16977531     -20.23422120       0.28394010       0.01348473      -0.00557811       0.00198657       1.00000000       1.50000000       2.00000000      -0.02820632      -0.04267395      -0.05222012      -0.01401059
2
Properties=species:S:1:pos:R:3:quaternions:R:4:old_torques:R:3:torques:R:3:c_diameter[1]:R:1:c_diameter[2]:R:1:c_diameter[3]:R:1:forces:R:3:energies:R:1 separation_distance=3.0822435986749364 old_energy=-0.5948380515840238 distance=3.082243595158915 gb_cutoff=5.0 gb_epsilon=1.0 gb_sigma=1.0 energy=-0.005152813779478484 pbc="F F F"
X       10.00000000      10.00000000      10.00000000       0.92049413      -0.33145010       0.13430306       0.15746137      -0.02502063       0.05082879      -0.20482960      -0.00123546       0.01026701      -0.00578959       1.00000000       1.50000000       2.00000000       0.01710919       0.00892719       0.01281206      -0.00515281
X       11.93814184      11.35690821      11.97550801       0.34045030       0.15645140       0.56222131      -0.73724063      -0.16298461       0.05738950      -0.05344415       0.00098452      -0.00129926      -0.00012385       1.00000000       1.50000000       2.00000000      -0.01710919      -0.00892719      -0.01281206      -0.00515281
2
Properties=species:S:1:pos:R:3:quaternions:R:4:old_torques:R:3:torques:R:3:c_diameter[1]:R:1:c_diameter[2]:R:1:c_diameter[3]:R:1:forces:R:3:energies:R:1 separation_distance=2.848686490279649 old_energy=-0.5335739274020029 distance=2.8486864906741216 gb_cutoff=5.0 gb_epsilon=1.0 gb_sigma=1.0 energy=-0.029274991868630976 pbc="F F F"
X       10.00000000      10.00000000      10.00000000       0.66105428      -0.18623337       0.47088553       0.55370677       0.53410051       0.41534753       0.96981273       0.00238754       0.01969889      -0.03472548       1.00000000       1.50000000       2.00000000       0.13455367       0.09572937       0.06161211      -0.02927499
X       11.65708873      11.98881776      11.18898090       0.85879492      -0.50649846       0.03407855      -0.06905970       0.61292109      -1.84995615      -1.21868271       0.00632731       0.03818612      -0.07424518       1.00000000       1.50000000       2.00000000      -0.13455367      -0.09572937      -0.06161211      -0.02927499
2
Properties=species:S:1:pos:R:3:quaternions:R:4:old_torques:R:3:torques:R:3:c_diameter[1]:R:1:c_diameter[2]:R:1:c_diameter[3]:R:1:forces:R:3:energies:R:1 separation_distance=2.6955552993714313 old_energy=-0.6615084317073536 distance=2.6955552912970826 gb_cutoff=5.0 gb_epsilon=1.0 gb_sigma=1.0 energy=-0.03817497373351948 pbc="F F F"
X       10.00000000      10.00000000      10.00000000       0.83118532      -0.49636138       0.23820519      -0.07755404       0.06970622      -0.38528790      -0.85849510       0.05114586      -0.02971186      -0.01628420       1.00000000       1.50000000       2.00000000       0.09864460       0.09031924       0.19680288      -0.03817497
X       11.57940754      11.02003083      11.93158672       0.34424167       0.72943824      -0.31774667      -0.49845218      -0.32491139       0.47746497      -0.79786453      -0.02486030      -0.09057949       0.05831456       1.00000000       1.50000000       2.00000000      -0.09864460      -0.09031924      -0.19680288      -0.03817497
2
Properties=species:S:1:pos:R:3:quaternions:R:4:old_torques:R:3:torques:R:3:c_diameter[1]:R:1:c_diameter[2]:R:1:c_diameter[3]:R:1:forces:R:3:energies:R:1 separation_distance=3.101139150237928 old_energy=-0.19754451018478358 distance=3.101139154694202 gb_cutoff=5.0 gb_epsilon=1.0 gb_sigma=1.0 energy=-0.012548018647137218 pbc="F F F"
X       10.00000000      10.00000000      10.00000000       0.51752336       0.36367077      -0.57566260       0.51819467      -0.11039105       0.51639068       0.15566532       0.02350020      -0.01660179      -0.00249565       1.00000000       1.50000000       2.00000000       0.03184362       0.03681552       0.04388628      -0.01254802
X       11.96654797      11.84213991      11.53501586       0.44135226      -0.07532910      -0.86957331       0.20826897      -0.09729542      -0.19715138      -0.25826504       0.00083207      -0.02082222       0.01623473       1.00000000       1.50000000       2.00000000      -0.03184362      -0.03681552      -0.04388628      -0.01254802
2
Properties=species:S:1:pos:R:3:quaternions:R:4:old_torques:R:3:torques:R:3:c_diameter[1]:R:1:c_diameter[2]:R:1:c_diameter[3]:R:1:forces:R:3:energies:R:1 separation_distance=2.735112858726062 old_energy=-0.5205980947830376 distance=2.735112859016851 gb_cutoff=5.0 gb_epsilon=1.0 gb_sigma=1.0 energy=-0.013903747749181402 pbc="F F F"
X       10.00000000      10.00000000      10.00000000       0.79159455       0.42540156       0.42262520      -0.11747140       0.07795754       0.43652175      -0.30016751      -0.00662503      -0.00363066       0.00793857       1.00000000       1.50000000       2.00000000       0.04626594       0.02783393       0.04854238      -0.01390375
X       11.54500452      11.15406313      11.93957255       0.60521438       0.78705168      -0.03940702       0.11274882      -0.46983751      -0.64179304      -0.59993642       0.00866006       0.01836862      -0.01832884       1.00000000       1.50000000       2.00000000      -0.04626594      -0.02783393      -0.04854238      -0.01390375
2
Properties=species:S:1:pos:R:3:quaternions:R:4:old_torques:R:3:torques:R:3:c_diameter[1]:R:1:c_diameter[2]:R:1:c_diameter[3]:R:1:forces:R:3:energies:R:1 separation_distance=2.7515336185929207 old_energy=-0.4073583035926968 distance=2.7515336147233165 gb_cutoff=5.0 gb_epsilon=1.0 gb_sigma=1.0 energy=-0.03603195715438512 pbc="F F F"
X       10.00000000      10.00000000      10.00000000       0.86909003      -0.41022195       0.19220156      -0.19864298       0.03209430      -0.05695744       0.18279973       0.00599896       0.05029739      -0.05141047       1.00000000       1.50000000       2.00000000       0.16520903       0.10467917       0.09809843      -0.03603196
X       11.84489540      11.34319690      11.53724438       0.31383294      -0.21547655      -0.90654994      -0.18233473       0.16324723       0.20348359      -0.61835549      -0.03515093       0.02268792       0.02262434       1.00000000       1.50000000       2.00000000      -0.16520903      -0.10467917      -0.09809843      -0.03603196
2
Properties=species:S:1:pos:R:3:quaternions:R:4:old_torques:R:3:torques:R:3:c_diameter[1]:R:1:c_diameter[2]:R:1:c_diameter[3]:R:1:forces:R:3:energies:R:1 separation_distance=2.56725520992967 old_energy=-0.7615967054640163 distance=2.5672552060001057 gb_cutoff=5.0 gb_epsilon=1.0 gb_sigma=1.0 energy=-0.05387394671534455 pbc="F F F"
X       10.00000000      10.00000000      10.00000000       0.44935700       0.08467645      -0.85578990      -0.24193352      -0.23394688      -1.93209161       0.84344232      -0.07591238       0.05925377       0.04986683       1.00000000       1.50000000       2.00000000       0.24043825       0.25152269       0.08337207      -0.05387395
X       11.89319787      11.35719718      11.07917419       0.63500134      -0.46293960       0.17189398      -0.59406455       0.11875060       0.86988753       0.72052786      -0.08237207       0.04238115       0.09999327       1.00000000       1.50000000       2.00000000      -0.24043825      -0.25152269      -0.08337207      -0.05387395
2
Properties=species:S:1:pos:R:3:quaternions:R:4:old_torques:R:3:torques:R:3:c_diameter[1]:R:1:c_diameter[2]:R:1:c_diameter[3]:R:1:forces:R:3:energies:R:1 separation_distance=2.550156386642893 old_energy=-0.8110050461989977 distance=2.55015638279183 gb_cutoff=5.0 gb_epsilon=1.0 gb_sigma=1.0 energy=-0.008617832802642734 pbc="F F F"
X       10.00000000      10.00000000      10.00000000       0.40916528       0.83231933      -0.01697348       0.37355082      -0.02507491       1.35194781       0.29000700       0.00196885      -0.00248204      -0.00215756       1.00000000       1.50000000       2.00000000       0.03005068       0.01869683       0.02064409      -0.00861783
X       11.79714872      11.26347514      11.29506163       0.04583941       0.25448301      -0.64071096      -0.72292918      -0.00053956       0.02912171       0.16673240      -0.00009909       0.00429902      -0.00220974       1.00000000       1.50000000       2.00000000      -0.03005068      -0.01869683      -0.02064409      -0.00861783
2
Properties=species:S:1:pos:R:3:quaternions:R:4:old_torques:R:3:torques:R:3:c_diameter[1]:R:1:c_diameter[2]:R:1:c_diameter[3]:R:1:forces:R:3:energies:R:1 separation_distance=2.8681723857424006 old_energy=-0.6157612894556413 distance=2.8681723863396402 gb_cutoff=5.0 gb_epsilon=1.0 gb_sigma=1.0 energy=-0.009256483659426011 pbc="F F F"
X       10.00000000      10.00000000      10.00000000       0.05554534       0.07007153      -0.92581590      -0.36724600      -0.05369542      -0.17056720       0.57180916      -0.00495240       0.01271588      -0.00186472       1.00000000       1.50000000       2.00000000       0.02795639       0.02109907       0.02823607      -0.00925648
X       11.66873428      11.31628641      11.92590987       0.32450560       0.37447455      -0.43825937       0.74992910       0.22879783      -0.95472765      -0.40356321       0.00148424      -0.00599288       0.00027484       1.00000000       1.50000000       2.00000000      -0.02795639      -0.02109907      -0.02823607      -0.00925648
2
Properties=species:S:1:pos:R:3:quaternions:R:4:old_torques:R:3:torques:R:3:c_diameter[1]:R:1:c_diameter[2]:R:1:c_diameter[3]:R:1:forces:R:3:energies:R:1 separation_distance=2.891131749858123 old_energy=-0.21498626439424842 distance=2.8911317530612153 gb_cutoff=5.0 gb_epsilon=1.0 gb_sigma=1.0 energy=-0.010022248855512407 pbc="F F F"
X       10.00000000      10.00000000      10.00000000       0.31173849       0.32359470      -0.60455004       0.65774223      -0.03945564       0.13334275       0.25469080       0.00892598      -0.00245163      -0.00855396       1.00000000       1.50000000       2.00000000       0.02814520       0.02926564       0.03000852      -0.01002225
X       11.24463560      11.79342371      11.89556230       0.06129547       0.95785713       0.26438948       0.09407860       0.06270336       0.27662857      -0.21634786      -0.01058283       0.01845294      -0.00549725       1.00000000       1.50000000       2.00000000      -0.02814520      -0.02926564      -0.03000852      -0.01002225
2
Properties=species:S:1:pos:R:3:quaternions:R:4:old_torques:R:3:torques:R:3:c_diameter[1]:R:1:c_diameter[2]:R:1:c_diameter[3]:R:1:forces:R:3:energies:R:1 separation_distance=2.9238594596913483 old_energy=-0.4386052541769153 distance=2.923859461359522 gb_cutoff=5.0 gb_epsilon=1.0 gb_sigma=1.0 energy=-0.014815904123468475 pbc="F F F"
X       10.00000000      10.00000000      10.00000000       0.67003267      -0.44111214       0.50799913       0.31370875       3.29457159       0.67899149       0.59748169       0.03567814      -0.02010841       0.01159744       1.00000000       1.50000000       2.00000000       0.00982074       0.04663056       0.06483401      -0.01481590
X       11.00526552      11.88974136      11.99180144       0.34646831       0.06656416      -0.93507602      -0.03408454       0.92502283       2.57198106       2.52543390      -0.00603745      -0.02550603       0.01672000       1.00000000       1.50000000       2.00000000      -0.00982074      -0.04663056      -0.06483401      -0.01481590
2
Properties=species:S:1:pos:R:3:quaternions:R:4:old_torques:R:3:torques:R:3:c_diameter[1]:R:1:c_diameter[2]:R:1:c_diameter[3]:R:1:forces:R:3:energies:R:1 separation_distance=2.810032612293351 old_energy=-0.5433257444620148 distance=2.810032613323117 gb_cutoff=5.0 gb_epsilon=1.0 gb_sigma=1.0 energy=-0.010333094365009014 pbc="F F F"
X       10.00000000      10.00000000      10.00000000       0.65771445      -0.44525407       0.30884255       0.52323684       0.53529550       0.23193529       1.08610854       0.01732260      -0.00103158      -0.00904360       1.00000000       1.50000000       2.00000000       0.02672181       0.02150583       0.03889182      -0.01033309
X       11.51253813      11.34198645      11.95130317       0.34697968       0.74965790       0.20952154       0.52318148       0.44774364       4.69503617       0.93522003      -0.00709469      -0.00565142       0.00571168       1.00000000       1.50000000       2.00000000      -0.02672181      -0.02150583      -0.03889182      -0.01033309
2
Properties=species:S:1:pos:R:3:quaternions:R:4:old_torques:R:3:torques:R:3:c_diameter[1]:R:1:c_diameter[2]:R:1:c_diameter[3]:R:1:forces:R:3:energies:R:1 separation_distance=2.7545990810378287 old_energy=-0.35532195583896614 distance=2.7545990820799124 gb_cutoff=5.0 gb_epsilon=1.0 gb_sigma=1.0 energy=-0.016299826994109794 pbc="F F F"
X       10.00000000      10.00000000      10.00000000       0.26141176       0.89374675       0.34909024      -0.10496020       0.03095391       0.33092383      -0.26374699      -0.02326487       0.03669104      -0.01190827       1.00000000       1.50000000       2.00000000       0.06023507       0.05564657       0.03643837      -0.01629983
X       11.29965822      11.95965539      11.43473181       0.81471507      -0.45641914      -0.28515218      -0.21589153       0.03940150      -0.05167539       0.52174665       0.01483362       0.00237269      -0.03381018       1.00000000       1.50000000       2.00000000      -0.06023507      -0.05564657      -0.03643837      -0.01629983
2
Properties=species:S:1:pos:R:3:quaternions:R:4:old_torques:R:3:torques:R:3:c_diameter[1]:R:1:c_diameter[2]:R:1:c_diameter[3]:R:1:forces:R:3:energies:R:1 separation_distance=2.7866751340483047 old_energy=-0.5764412597379248 distance=2.786675132311663 gb_cutoff=5.0 gb_epsilon=1.0 gb_sigma=1.0 energy=-0.024368687787977586 pbc="F F F"
X       10.00000000      10.00000000      10.00000000       0.97701081      -0.06930754      -0.03847358      -0.19790435       0.16546914      -1.39298673       0.23289740       0.00079617       0.04609902      -0.03587533       1.00000000       1.50000000       2.00000000       0.11591399       0.05827259       0.06563619      -0.02436869
X       11.54145262      11.68081576      11.60135583       0.85565146      -0.48599107       0.11513505      -0.13570989      -0.16749228       1.04821435       0.32730874       0.01621102       0.03834543      -0.06913029       1.00000000       1.50000000       2.00000000      -0.11591399      -0.05827259      -0.06563619      -0.02436869
2
Properties=species:S:1:pos:R:3:quaternions:R:4:old_torques:R:3:torques:R:3:c_diameter[1]:R:1:c_diameter[2]:R:1:c_diameter[3]:R:1:forces:R:3:energies:R:1 separation_distance=2.8969207284153797 old_energy=-0.16294235875452823 distance=2.8969207280170646 gb_cutoff=5.0 gb_epsilon=1.0 gb_sigma=1.0 energy=-0.012645769776536796 pbc="F F F"
X       10.00000000      10.00000000      10.00000000       0.25153061      -0.39105033      -0.04613626       0.88412863      -0.00320094       0.06214250       0.13293045       0.00312546       0.00255929      -0.00890786       1.00000000       1.50000000       2.00000000       0.02905896       0.04521121       0.03802814      -0.01264577
X       11.35156434      11.67995777      11.93472619       0.55103705      -0.33021603       0.22043781      -0.73397732      -0.04881460      -0.14512772      -0.20296590      -0.02671112       0.00226435       0.02119591       1.00000000       1.50000000       2.00000000      -0.02905896      -0.04521121      -0.03802814      -0.01264577
2
Properties=species:S:1:pos:R:3:quaternions:R:4:old_torques:R:3:torques:R:3:c_diameter[1]:R:1:c_diameter[2]:R:1:c_diameter[3]:R:1:forces:R:3:energies:R:1 separation_distance=3.194233057805151 old_energy=-0.31844041070729845 distance=3.1942330558177727 gb_cutoff=5.0 gb_epsilon=1.0 gb_sigma=1.0 energy=-0.0024480955766027776 pbc="F F F"
X       10.00000000      10.00000000      10.00000000       0.23495964      -0.94439479      -0.22442641      -0.05045027      -0.17926775       1.01103938       0.17289491      -0.00125399       0.00181923      -0.00051456       1.00000000       1.50000000       2.00000000       0.00562329       0.00556092       0.00541105      -0.00244810
X       11.66196441      11.93626545      11.92142531       0.27053956       0.87642869       0.00535234       0.39831199      -0.26296989      -0.75686748      -0.31462619       0.00104631      -0.00000747      -0.00113156       1.00000000       1.50000000       2.00000000      -0.00562329      -0.00556092      -0.00541105      -0.00244810
2
Properties=species:S:1:pos:R:3:quaternions:R:4:old_torques:R:3:torques:R:3:c_diameter[1]:R:1:c_diameter[2]:R:1:c_diameter[3]:R:1:forces:R:3:energies:R:1 separation_distance=3.0567300111838946 old_energy=-0.14925001455998002 distance=3.056730008572645 gb_cutoff=5.0 gb_epsilon=1.0 gb_sigma=1.0 energy=-0.007854428415600573 pbc="F F F"
X       10.00000000      10.00000000      10.00000000       0.77945311       0.14133454       0.32308812      -0.51777549       0.03610713       0.20269304      -0.11405962      -0.00084375      -0.00285525       0.00775594       1.00000000       1.50000000       2.00000000       0.02659582       0.02242870       0.01511313      -0.00785443
X       11.97181139      11.70902989      11.59209768       0.27352754       0.91468276       0.24880354      -0.16320214       0.10031749       0.21818847      -0.18866390      -0.00903615       0.01539816      -0.00898383       1.00000000       1.50000000       2.00000000      -0.02659582      -0.02242870      -0.01511313      -0.00785443
2
Properties=species:S:1:pos:R:3:quaternions:R:4:old_torques:R:3:torques:R:3:c_diameter[1]:R:1:c_diameter[2]:R:1:c_diameter[3]:R:1:forces:R:3:energies:R:1 separation_distance=3.052357439772416 old_energy=-0.2854524933881643 distance=3.052357444602808 gb_cutoff=5.0 gb_epsilon=1.0 gb_sigma=1.0 energy=-0.0087519742617218 pbc="F F F"
X       10.00000000      10.00000000      10.00000000       0.53054632      -0.53130706       0.19061317      -0.63237649      -0.03542541      -0.01989678      -0.33502946      -0.00204741      -0.00880849       0.01024531       1.00000000       1.50000000       2.00000000       0.01794190       0.02552586       0.02996047      -0.00875197
X       11.75892621      11.63693762      11.88241860       0.62704884       0.49357494       0.08431201      -0.59672860      -0.24597322      -0.17085768      -0.23397406       0.00304049      -0.01011560       0.00528302       1.00000000       1.50000000       2.00000000      -0.01794190      -0.02552586      -0.02996047      -0.00875197
2
Properties=species:S:1:pos:R:3:quaternions:R:4:old_torques:R:3:torques:R:3:c_diameter[1]:R:1:c_diameter[2]:R:1:c_diameter[3]:R:1:forces:R:3:energies:R:1 separation_distance=3.1306570832809895 old_energy=-0.2869945733992354 distance=3.130657082607536 gb_cutoff=5.0 gb_epsilon=1.0 gb_sigma=1.0 energy=-0.004038753170582782 pbc="F F F"
X       10.00000000      10.00000000      10.00000000       0.36073557       0.42605137      -0.49976866       0.66225476      -0.05898447       0.21158232       0.33377978       0.00337170      -0.00275688      -0.00143918       1.00000000       1.50000000       2.00000000       0.00953071       0.00979112       0.01058933      -0.00403875
X       11.91002414      11.87256725      11.62674935       0.32785369      -0.56406698       0.71763866       0.24358809      -0.03553781      -1.09301774      -0.07242515       0.00052985      -0.00196493       0.00229356       1.00000000       1.50000000       2.00000000      -0.00953071      -0.00979112      -0.01058933      -0.00403875
2
Properties=species:S:1:pos:R:3:quaternions:R:4:old_torques:R:3:torques:R:3:c_diameter[1]:R:1:c_diameter[2]:R:1:c_diameter[3]:R:1:forces:R:3:energies:R:1 separation_distance=3.2021658233276944 old_energy=-0.17633344174757254 distance=3.202165822336681 gb_cutoff=5.0 gb_epsilon=1.0 gb_sigma=1.0 energy=-0.006000494842395655 pbc="F F F"
X       10.00000000      10.00000000      10.00000000       0.42334649      -0.46670170      -0.76851347      -0.11114996      -0.04403279      -0.03011087      -0.10826832      -0.00080289      -0.00490841       0.00547168       1.00000000       1.50000000       2.00000000       0.01048496       0.01764446       0.01858844      -0.00600049
X       11.81755664      11.74275689      11.97816891       0.90516825      -0.09828209       0.41125918      -0.04332378      -0.01033330       0.10217229       0.16738829      -0.00170569      -0.00813611       0.00832538       1.00000000       1.50000000       2.00000000      -0.01048496      -0.01764446      -0.01858844      -0.00600049
2
Properties=species:S:1:pos:R:3:quaternions:R:4:old_torques:R:3:torques:R:3:c_diameter[1]:R:1:c_diameter[2]:R:1:c_diameter[3]:R:1:forces:R:3:energies:R:1 separation_distance=2.484844924705437 old_energy=-0.7022143011322588 distance=2.484844921640748 gb_cutoff=5.0 gb_epsilon=1.0 gb_sigma=1.0 energy=-0.04541067138901319 pbc="F F F"
X       10.00000000      10.00000000      10.00000000       0.61588133      -0.61613476       0.28383003      -0.40063531       0.03863647       1.16142313      -0.16477022       0.00440790      -0.07348747       0.06713093       1.00000000       1.50000000       2.00000000       0.09480044       0.20396672       0.18253489      -0.04541067
X       11.15274481      11.65063898      11.45637380       0.79256916       0.35060069       0.49599526       0.05387007       0.03696101      -0.09212497       0.20969702      -0.00016048       0.00113620       0.01150935       1.00000000       1.50000000       2.00000000      -0.09480044      -0.20396672      -0.18253489      -0.04541067
2
Properties=species:S:1:pos:R:3:quaternions:R:4:old_torques:R:3:torques:R:3:c_diameter[1]:R:1:c_diameter[2]:R:1:c_diameter[3]:R:1:forces:R:3:energies:R:1 separation_distance=2.665683999078962 old_energy=-0.39131377360725533 distance=2.665683992999423 gb_cutoff=5.0 gb_epsilon=1.0 gb_sigma=1.0 energy=-0.03010553077101708 pbc="F F F"
X       10.00000000      10.00000000      10.00000000       0.92632847       0.17532084       0.33183209       0.03264403      -0.03233521       0.31819024       0.27766789      -0.03693331       0.06782021       0.01723983       1.00000000       1.50000000       2.00000000       0.16137605       0.08428657       0.03293221      -0.03010553
X       11.94096216      11.39411244      11.18109591       0.17696212      -0.08099697      -0.87538575       0.44251970      -0.00934160      -0.87370619      -0.04409379      -0.01670601       0.05886022      -0.07861915       1.00000000       1.50000000       2.00000000      -0.16137605      -0.08428657      -0.03293221      -0.03010553
2
Properties=species:S:1:pos:R:3:quaternions:R:4:old_torques:R:3:torques:R:3:c_diameter[1]:R:1:c_diameter[2]:R:1:c_diameter[3]:R:1:forces:R:3:energies:R:1 separation_distance=2.6834775146678593 old_energy=-0.7525108556680582 distance=2.683477516248547 gb_cutoff=5.0 gb_epsilon=1.0 gb_sigma=1.0 energy=-0.04248315126282624 pbc="F F F"
X       10.00000000      10.00000000      10.00000000       0.64265929      -0.42929326       0.32722123      -0.54371187      -0.07551194      -3.61264186       0.25759168      -0.06225448      -0.01352015       0.10817076       1.00000000       1.50000000       2.00000000       0.10207848       0.23575865       0.08779061      -0.04248315
X       11.47583672      11.91254074      11.16839440       0.40245306      -0.49983441      -0.16582901      -0.74879760       0.11305312       4.80288978       0.28742127      -0.04530148       0.00322346       0.04454127       1.00000000       1.50000000       2.00000000      -0.10207848      -0.23575865      -0.08779061      -0.04248315
2
Properties=species:S:1:pos:R:3:quaternions:R:4:old_torques:R:3:torques:R:3:c_diameter[1]:R:1:c_diameter[2]:R:1:c_diameter[3]:R:1:forces:R:3:energies:R:1 separation_distance=2.772362782330911 old_energy=-0.5379151612456559 distance=2.7723627839900673 gb_cutoff=5.0 gb_epsilon=1.0 gb_sigma=1.0 energy=-0.014631109911200599 pbc="F F F"
X       10.00000000      10.00000000      10.00000000       0.16357629       0.51207241      -0.81334257      -0.22248262      -0.00961403       0.15758877       0.39055756      -0.02828240       0.00633625       0.00938129       1.00000000       1.50000000       2.00000000       0.03282535       0.05784737       0.04052001      -0.01463111
X       11.40073671      11.89331596      11.46263008       0.73271123       0.57037308       0.02177717      -0.37058678      -0.55000355      -0.93981173      -0.58006558       0.02039027      -0.01508277       0.00949889       1.00000000       1.50000000       2.00000000      -0.03282535      -0.05784737      -0.04052001      -0.01463111
2
Properties=species:S:1:pos:R:3:quaternions:R:4:old_torques:R:3:torques:R:3:c_diameter[1]:R:1:c_diameter[2]:R:1:c_diameter[3]:R:1:forces:R:3:energies:R:1 separation_distance=3.0451192915270533 old_energy=-0.3457523280938701 distance=3.045119292186214 gb_cutoff=5.0 gb_epsilon=1.0 gb_sigma=1.0 energy=-0.006092694428961756 pbc="F F F"
X       10.00000000      10.00000000      10.00000000       0.02212317      -0.06581939      -0.54910360      -0.83286470       0.14343049       1.34257999      -0.15311377       0.00145669       0.00877208      -0.01093962       1.00000000       1.50000000       2.00000000       0.02294873       0.01217058       0.01150466      -0.00609269
X       11.96293001      11.92889326      11.30346771       0.58107722      -0.78927729      -0.06799689      -0.18645926       0.00110816       0.04101673       0.05087838       0.00487062      -0.00144201      -0.00943603       1.00000000       1.50000000       2.00000000      -0.02294873      -0.01217058      -0.01150466      -0.00609269
2
Properties=species:S:1:pos:R:3:quaternions:R:4:old_torques:R:3:torques:R:3:c_diameter[1]:R:1:c_diameter[2]:R:1:c_diameter[3]:R:1:forces:R:3:energies:R:1 separation_distance=2.687728404015648 old_energy=-0.5242845445425607 distance=2.6877284048242487 gb_cutoff=5.0 gb_epsilon=1.0 gb_sigma=1.0 energy=-0.024414953349837204 pbc="F F F"
X       10.00000000      10.00000000      10.00000000       0.67314068      -0.44725046      -0.07503375       0.58413919       1.13669328       2.29941107       2.26681195      -0.02379778       0.01592189       0.00224333       1.00000000       1.50000000       2.00000000       0.09463414       0.07015841       0.07467426      -0.02441495
X       11.58089696      11.42881987      11.63802398       0.26857434       0.46299922      -0.70803685       0.46063365      -0.54581122       1.18263905      -2.44446208       0.01557269       0.02103878      -0.02654525       1.00000000       1.50000000       2.00000000      -0.09463414      -0.07015841      -0.07467426      -0.02441495
2
Properties=species:S:1:pos:R:3:quaternions:R:4:old_torques:R:3:torques:R:3:c_diameter[1]:R:1:c_diameter[2]:R:1:c_diameter[3]:R:1:forces:R:3:energies:R:1 separation_distance=2.440797189640041 old_energy=-0.8866455614625074 distance=2.44079718801938 gb_cutoff=5.0 gb_epsilon=1.0 gb_sigma=1.0 energy=-0.012153526445458748 pbc="F F F"
X       10.00000000      10.00000000      10.00000000       0.40111653       0.87629429       0.16133290       0.21256891      -0.04571838       0.40144885       0.23598245      -0.00312315       0.01286417      -0.01142129       1.00000000       1.50000000       2.00000000       0.04087801       0.03280553       0.03263664      -0.01215353
X       11.48031154      11.27264354      11.46510992       0.05522686      -0.46852229       0.75376911       0.45745926      -0.04970561       0.82832830       0.03412909      -0.00340574      -0.00128578       0.00796056       1.00000000       1.50000000       2.00000000      -0.04087801      -0.03280553      -0.03263664      -0.01215353
2
Properties=species:S:1:pos:R:3:quaternions:R:4:old_torques:R:3:torques:R:3:c_diameter[1]:R:1:c_diameter[2]:R:1:c_diameter[3]:R:1:forces:R:3:energies:R:1 separation_distance=2.6287990681015345 old_energy=-0.7706966109414218 distance=2.6287990646060853 gb_cutoff=5.0 gb_epsilon=1.0 gb_sigma=1.0 energy=-0.009619675917473107 pbc="F F F"
X       10.00000000      10.00000000      10.00000000       0.46677665      -0.47417530       0.63067150       0.39941307      -0.06089895       0.21570794       0.16375915       0.01120070      -0.00463361       0.00026189       1.00000000       1.50000000       2.00000000       0.01411342       0.02421748       0.03801311      -0.00961968
X       11.01548468      11.60802805      11.81483365       0.67696100       0.37966497       0.47066909      -0.41958184       0.02521698      -0.03170086       0.05975090       0.00597476      -0.00835462       0.00163581       1.00000000       1.50000000       2.00000000      -0.01411342      -0.02421748      -0.03801311      -0.00961968
2
Properties=species:S:1:pos:R:3:quaternions:R:4:old_torques:R:3:torques:R:3:c_diameter[1]:R:1:c_diameter[2]:R:1:c_diameter[3]:R:1:forces:R:3:energies:R:1 separation_distance=2.869914899584302 old_energy=-0.17442227276861105 distance=2.8699148985679277 gb_cutoff=5.0 gb_epsilon=1.0 gb_sigma=1.0 energy=-0.016696883162474155 pbc="F F F"
X       10.00000000      10.00000000      10.00000000       0.56409607      -0.22875822       0.14648623       0.77974809       0.00065304       0.02679253      -0.17872410      -0.00188052       0.01252907      -0.01392863       1.00000000       1.50000000       2.00000000       0.06890123       0.03813875       0.04279188      -0.01669688
X       11.88716075      11.59556154      11.45918443       0.49536144      -0.28448071       0.28546631       0.76954321       0.00362368      -0.01059945      -0.15639971       0.01450612       0.00725537      -0.02403356       1.00000000       1.50000000       2.00000000      -0.06890123      -0.03813875      -0.04279188      -0.01669688
2
Properties=species:S:1:pos:R:3:quaternions:R:4:old_torques:R:3:torques:R:3:c_diameter[1]:R:1:c_diameter[2]:R:1:c_diameter[3]:R:1:forces:R:3:energies:R:1 separation_distance=2.7664735795744124 old_energy=-0.3429795517908613 distance=2.766473577441663 gb_cutoff=5.0 gb_epsilon=1.0 gb_sigma=1.0 energy=-0.009480870154113788 pbc="F F F"
X       10.00000000      10.00000000      10.00000000       0.54339993      -0.81842112      -0.14807730      -0.11391442      -0.04687045       0.58007888       0.10340397       0.00267486       0.00040805      -0.00866669       1.00000000       1.50000000       2.00000000       0.03732185       0.01844367       0.02215942      -0.00948087
X       11.82782937      11.42681352      11.50884692       0.96294885      -0.05380453      -0.03280590      -0.26221815       0.00341212      -0.75074122      -0.02641627       0.00111383       0.01540126      -0.01087275       1.00000000       1.50000000       2.00000000      -0.03732185      -0.01844367      -0.02215942      -0.00948087
2
Properties=species:S:1:pos:R:3:quaternions:R:4:old_torques:R:3:torques:R:3:c_diameter[1]:R:1:c_diameter[2]:R:1:c_diameter[3]:R:1:forces:R:3:energies:R:1 separation_distance=2.6551531374065793 old_energy=-0.5941785883512997 distance=2.655153138270209 gb_cutoff=5.0 gb_epsilon=1.0 gb_sigma=1.0 energy=-0.010998772032952246 pbc="F F F"
X       10.00000000      10.00000000      10.00000000       0.24387186       0.80468459       0.27167645       0.46818920      -0.11449362      -1.11832536      -0.24833102      -0.00036072       0.00249069      -0.00174876       1.00000000       1.50000000       2.00000000       0.02306389       0.03349499       0.03851390      -0.01099877
X       11.26907019      11.20710873      11.99554192       0.80438255       0.00508384       0.24728942      -0.54017664      -0.34409271      -1.14579107      -0.52221401      -0.01998947      -0.00534257       0.01641563       1.00000000       1.50000000       2.00000000      -0.02306389      -0.03349499      -0.03851390      -0.01099877
2
Properties=species:S:1:pos:R:3:quaternions:R:4:old_torques:R:3:torques:R:3:c_diameter[1]:R:1:c_diameter[2]:R:1:c_diameter[3]:R:1:forces:R:3:energies:R:1 separation_distance=2.891313173337936 old_energy=-0.6365714616686018 distance=2.891313169878691 gb_cutoff=5.0 gb_epsilon=1.0 gb_sigma=1.0 energy=-0.013377786937791791 pbc="F F F"
X       10.00000000      10.00000000      10.00000000       0.66800628      -0.53439975       0.21728832      -0.47007479      -0.02476034      -0.21747878      -0.18501154      -0.00988261      -0.00737542       0.02212724       1.00000000       1.50000000       2.00000000       0.03462590       0.05396744       0.02952902      -0.01337779
X       11.67604479      11.86646247      11.43766601       0.47252444       0.28474963      -0.57861859      -0.60069861      -0.26388978       1.22954005       0.22080895      -0.01258975       0.00766395       0.00369666       1.00000000       1.50000000       2.00000000      -0.03462590      -0.05396744      -0.02952902      -0.01337779
2
Properties=species:S:1:pos:R:3:quaternions:R:4:old_torques:R:3:torques:R:3:c_diameter[1]:R:1:c_diameter[2]:R:1:c_diameter[3]:R:1:forces:R:3:energies:R:1 separation_distance=3.0208616334672773 old_energy=-0.3559133370114672 distance=3.0208616332601266 gb_cutoff=5.0 gb_epsilon=1.0 gb_sigma=1.0 energy=-0.003326385333140553 pbc="F F F"
X       10.00000000      10.00000000      10.00000000       0.48334300       0.74657196       0.13513263       0.43674825      -0.13233485      -0.83100954      -0.27740736      -0.00072560       0.00124936      -0.00014400       1.00000000       1.50000000       2.00000000       0.00730192       0.00721700       0.00900137      -0.00332639
X       11.75885798      11.60705033      11.85725950       0.31249832       0.54909583       0.01036807      -0.77506843       0.10156991      -0.15100512       0.58728299       0.00178742      -0.00351994       0.00110313       1.00000000       1.50000000       2.00000000      -0.00730192      -0.00721700      -0.00900137      -0.00332639
2
Properties=species:S:1:pos:R:3:quaternions:R:4:old_torques:R:3:torques:R:3:c_diameter[1]:R:1:c_diameter[2]:R:1:c_diameter[3]:R:1:forces:R:3:energies:R:1 separation_distance=2.9577429186462605 old_energy=-0.17349756825649004 distance=2.9577429232067765 gb_cutoff=5.0 gb_epsilon=1.0 gb_sigma=1.0 energy=-0.009868329208604996 pbc="F F F"
X       10.00000000      10.00000000      10.00000000       0.68686842      -0.34038034       0.25218998      -0.59055330      -0.04991020      -0.25137314      -0.13786549      -0.01866951      -0.00169163       0.02031039       1.00000000       1.50000000       2.00000000       0.02367347       0.03672155       0.02476436      -0.00986833
X       11.72980667      11.52013503      11.85612542       0.39900089       0.40453813      -0.65332686      -0.50031111      -0.03221387       0.43550593       0.04549465      -0.01184512       0.00279501       0.00722391       1.00000000       1.50000000       2.00000000      -0.02367347      -0.03672155      -0.02476436      -0.00986833
2
Properties=species:S:1:pos:R:3:quaternions:R:4:old_torques:R:3:torques:R:3:c_diameter[1]:R:1:c_diameter[2]:R:1:c_diameter[3]:R:1:forces:R:3:energies:R:1 separation_distance=2.6218320384290017 old_energy=-0.5807941242018498 distance=2.621832032893499 gb_cutoff=5.0 gb_epsilon=1.0 gb_sigma=1.0 energy=-0.030721730033269022 pbc="F F F"
X       10.00000000      10.00000000      10.00000000       0.63135105       0.08017363       0.17178221      -0.75197002       1.36823786       3.07865484       3.50222206      -0.04299166       0.01026717       0.03589171       1.00000000       1.50000000       2.00000000       0.10955238       0.11049780       0.09915588      -0.03072173
X       11.68227936      11.41315245      11.43071294       0.53085724       0.39643956      -0.72466750       0.18942883       0.06134921      -5.85949566      -0.12906352       0.02502340      -0.02033706      -0.00481774       1.00000000       1.50000000       2.00000000      -0.10955238      -0.11049780      -0.09915588      -0.03072173
2
Properties=species:S:1:pos:R:3:quaternions:R:4:old_torques:R:3:torques:R:3:c_diameter[1]:R:1:c_diameter[2]:R:1:c_diameter[3]:R:1:forces:R:3:energies:R:1 separation_distance=2.9332524824600332 old_energy=-0.5788135884156352 distance=2.933252486911381 gb_cutoff=5.0 gb_epsilon=1.0 gb_sigma=1.0 energy=-0.010427958726402177 pbc="F F F"
X       10.00000000      10.00000000      10.00000000       0.15163512       0.13444918      -0.43388393       0.87788094       0.01519883       0.11512267       0.22933715       0.00019628      -0.00450208       0.00060150       1.00000000       1.50000000       2.00000000       0.01400824       0.03292432       0.03808151      -0.01042796
X       11.23686936      11.88269930      11.87871437       0.61940768       0.64404446       0.00438668      -0.44891158      -0.18566665      -0.24969100      -0.25361075       0.00964436      -0.01628228       0.01374827       1.00000000       1.50000000       2.00000000      -0.01400824      -0.03292432      -0.03808151      -0.01042796
2
Properties=species:S:1:pos:R:3:quaternions:R:4:old_torques:R:3:torques:R:3:c_diameter[1]:R:1:c_diameter[2]:R:1:c_diameter[3]:R:1:forces:R:3:energies:R:1 separation_distance=2.7523734529804873 old_energy=-0.7597639013851464 distance=2.7523734528972494 gb_cutoff=5.0 gb_epsilon=1.0 gb_sigma=1.0 energy=-0.010866818536516425 pbc="F F F"
X       10.00000000      10.00000000      10.00000000       0.41395190      -0.64849738       0.17258398       0.61506890      -0.07552153       0.20866130       0.01887307       0.01085257       0.00143747      -0.00577465       1.00000000       1.50000000       2.00000000       0.02386364       0.03698558       0.03228279      -0.01086682
X       11.29939257      11.84811305      11.57213763       0.42656311       0.61794773       0.45107991       0.48240172       0.04060856       0.99251896      -0.03504162      -0.00933675      -0.00586856       0.00973073       1.00000000       1.50000000       2.00000000      -0.02386364      -0.03698558      -0.03228279      -0.01086682
2
Properties=species:S:1:pos:R:3:quaternions:R:4:old_torques:R:3:torques:R:3:c_diameter[1]:R:1:c_diameter[2]:R:1:c_diameter[3]:R:1:forces:R:3:energies:R:1 separation_distance=2.9867324212039064 old_energy=-0.47669040898916126 distance=2.986732418432546 gb_cutoff=5.0 gb_epsilon=1.0 gb_sigma=1.0 energy=-0.008325882031649487 pbc="F F F"
X       10.00000000      10.00000000      10.00000000       0.04798390       0.07085170      -0.19591200      -0.97688079      -0.24076678       0.87388367       0.37517860      -0.00022977       0.01539072      -0.00612742       1.00000000       1.50000000       2.00000000       0.03235282       0.01342167       0.02161265      -0.00832588
X       11.87308810      11.56870880      11.71792439       0.28802271       0.08082107       0.66662622       0.68273007       0.21363470       0.28411634      -0.64778889       0.01107630      -0.00029342      -0.01948476       1.00000000       1.50000000       2.00000000      -0.03235282      -0.01342167      -0.02161265      -0.00832588
2
Properties=species:S:1:pos:R:3:quaternions:R:4:old_torques:R:3:torques:R:3:c_diameter[1]:R:1:c_diameter[2]:R:1:c_diameter[3]:R:1:forces:R:3:energies:R:1 separation_distance=2.8581329594665315 old_energy=-0.6066392048228363 distance=2.85813296401559 gb_cutoff=5.0 gb_epsilon=1.0 gb_sigma=1.0 energy=-0.007649857439329444 pbc="F F F"
X       10.00000000      10.00000000      10.00000000       0.12070463       0.83841763      -0.23859711       0.47492914       0.28868090       0.85108942       1.02934164       0.00559609      -0.00594152      -0.00321679       1.00000000       1.50000000       2.00000000       0.02481206       0.00996523       0.02454955      -0.00764986
X       11.83717060      11.25105081      11.79683057       0.13773200       0.88323282      -0.34849128       0.28192820      -0.32928987      -0.52171360       0.95688175       0.00721082       0.00542288      -0.00951654       1.00000000       1.50000000       2.00000000      -0.02481206      -0.00996523      -0.02454955      -0.00764986
2
Properties=species:S:1:pos:R:3:quaternions:R:4:old_torques:R:3:torques:R:3:c_diameter[1]:R:1:c_diameter[2]:R:1:c_diameter[3]:R:1:forces:R:3:energies:R:1 separation_distance=3.227869306832757 old_energy=-0.1739731711836149 distance=3.227869312351653 gb_cutoff=5.0 gb_epsilon=1.0 gb_sigma=1.0 energy=-0.003264406894218638 pbc="F F F"
X       10.00000000      10.00000000      10.00000000       0.03411597       0.00889111       0.95982293       0.27838283      -0.08965612      -0.06567408      -0.21396496      -0.00048925       0.00246143      -0.00224152       1.00000000       1.50000000       2.00000000       0.00807855       0.00739469       0.00764175      -0.00326441
X       11.95038565      11.74253423      11.89174802       0.12940592      -0.66856036      -0.66220295      -0.31267940       0.05357460      -0.11816161       0.23051421      -0.00018364      -0.00208320       0.00258687       1.00000000       1.50000000       2.00000000      -0.00807855      -0.00739469      -0.00764175      -0.00326441
2
Properties=species:S:1:pos:R:3:quaternions:R:4:old_torques:R:3:torques:R:3:c_diameter[1]:R:1:c_diameter[2]:R:1:c_diameter[3]:R:1:forces:R:3:energies:R:1 separation_distance=3.0104963595812992 old_energy=-0.29184935535111695 distance=3.0104963616274185 gb_cutoff=5.0 gb_epsilon=1.0 gb_sigma=1.0 energy=-0.005795307860366485 pbc="F F F"
X       10.00000000      10.00000000      10.00000000       0.10050264       0.13190000       0.66413061       0.72899392       0.30030914       0.42798417      -0.45188233       0.00480239       0.00461661      -0.00973389       1.00000000       1.50000000       2.00000000       0.02028184       0.00667891       0.01572240      -0.00579531
X       11.95507568      11.28498443      11.89461934       0.27406519      -0.93518216       0.06539452      -0.21458369       0.04164611       0.28834081      -0.11146196       0.00274667       0.00307127      -0.00327019       1.00000000       1.50000000       2.00000000      -0.02028184      -0.00667891      -0.01572240      -0.00579531
2
Properties=species:S:1:pos:R:3:quaternions:R:4:old_torques:R:3:torques:R:3:c_diameter[1]:R:1:c_diameter[2]:R:1:c_diameter[3]:R:1:forces:R:3:energies:R:1 separation_distance=2.673636939491607 old_energy=-0.3995533852872329 distance=2.6736369409715883 gb_cutoff=5.0 gb_epsilon=1.0 gb_sigma=1.0 energy=-0.014574632731790563 pbc="F F F"
X       10.00000000      10.00000000      10.00000000       0.19902323      -0.93684040       0.05479817      -0.28234195       0.12869196       0.47232639      -0.40521191       0.00782607       0.00427816      -0.00909341       1.00000000       1.50000000       2.00000000       0.05719812       0.01956416       0.04957599      -0.01457463
X       11.73213542      11.04414567      11.74865697       0.25735680       0.25617586      -0.77921018       0.51085507      -0.05780713       0.25842299       0.49817766       0.00972748       0.00986940      -0.01674199       1.00000000       1.50000000       2.00000000      -0.05719812      -0.01956416      -0.04957599      -0.01457463
2
Properties=species:S:1:pos:R:3:quaternions:R:4:old_torques:R:3:torques:R:3:c_diameter[1]:R:1:c_diameter[2]:R:1:c_diameter[3]:R:1:forces:R:3:energies:R:1 separation_distance=2.529252868294776 old_energy=-0.6612585942245801 distance=2.5292528687423115 gb_cutoff=5.0 gb_epsilon=1.0 gb_sigma=1.0 energy=-0.1069119835518556 pbc="F F F"
X       10.00000000      10.00000000      10.00000000       0.49747580       0.86079248       0.04002998      -0.09975839       0.27830491       0.64050603       2.14434862      -0.05207882       0.18268889      -0.27801534       1.00000000       1.50000000       2.00000000       0.48698360       0.52794641       0.24186186      -0.10691198
X       11.27086593      11.87618764      11.12336094       0.38964589       0.02239917      -0.87468127       0.28741440      -0.01879040       0.07378535       1.43805460      -0.08721733       0.05699547       0.03529184       1.00000000       1.50000000       2.00000000      -0.48698360      -0.52794641      -0.24186186      -0.10691198
2
Properties=species:S:1:pos:R:3:quaternions:R:4:old_torques:R:3:torques:R:3:c_diameter[1]:R:1:c_diameter[2]:R:1:c_diameter[3]:R:1:forces:R:3:energies:R:1 separation_distance=2.8163073645159864 old_energy=-0.435755030593005 distance=2.816307361920511 gb_cutoff=5.0 gb_epsilon=1.0 gb_sigma=1.0 energy=-0.009571561767009507 pbc="F F F"
X       10.00000000      10.00000000      10.00000000       0.51336267      -0.57761997      -0.42687947      -0.46966782       0.28455686      -0.99710853       0.38226416       0.01342084      -0.00982206      -0.01086855       1.00000000       1.50000000       2.00000000       0.03395032       0.02448037       0.02312830      -0.00957156
X       11.71508056      11.78781220      11.33933318       0.29322703       0.93439419       0.17520388       0.10113854      -0.11753363      -0.27208675      -0.56174293      -0.00485915       0.01562596      -0.00784245       1.00000000       1.50000000       2.00000000      -0.03395032      -0.02448037      -0.02312830      -0.00957156
2
Properties=species:S:1:pos:R:3:quaternions:R:4:old_torques:R:3:torques:R:3:c_diameter[1]:R:1:c_diameter[2]:R:1:c_diameter[3]:R:1:forces:R:3:energies:R:1 separation_distance=3.1956983772688417 old_energy=-0.12535176278389948 distance=3.1956983782005457 gb_cutoff=5.0 gb_epsilon=1.0 gb_sigma=1.0 energy=-0.003998165773188555 pbc="F F F"
X       10.00000000      10.00000000      10.00000000       0.44060478       0.57872043       0.23755679      -0.64382984       0.10103952       0.07673997      -0.13223136       0.00633485      -0.00523733       0.00122600       1.00000000       1.50000000       2.00000000       0.00824203       0.01106928       0.01032852      -0.00399817
X       11.74062790      11.97468401      11.81199495       0.07373228       0.48322884      -0.83248194      -0.26082035      -0.00280250      -0.04525194      -0.02985457      -0.00599677       0.00219375       0.00176608       1.00000000       1.50000000       2.00000000      -0.00824203      -0.01106928      -0.01032852      -0.00399817
2
Properties=species:S:1:pos:R:3:quaternions:R:4:old_torques:R:3:torques:R:3:c_diameter[1]:R:1:c_diameter[2]:R:1:c_diameter[3]:R:1:forces:R:3:energies:R:1 separation_distance=2.907487488166043 old_energy=-0.5318720196330332 distance=2.9074874875260304 gb_cutoff=5.0 gb_epsilon=1.0 gb_sigma=1.0 energy=-0.005102842686626694 pbc="F F F"
X       10.00000000      10.00000000      10.00000000       0.23964944      -0.21550557       0.79318600       0.51670250       0.98267874       1.30695635       2.09682006       0.00641362       0.00035056      -0.00511851       1.00000000       1.50000000       2.00000000       0.01146745       0.01361007       0.01416449      -0.00510284
X       11.48910567      11.83086226      11.69823178       0.46015847       0.66795130       0.31174552       0.49488379      -0.19663909       8.44578507      -0.17813361      -0.00359344      -0.00196859       0.00439001       1.00000000       1.50000000       2.00000000      -0.01146745      -0.01361007      -0.01416449      -0.00510284
2
Properties=species:S:1:pos:R:3:quaternions:R:4:old_torques:R:3:torques:R:3:c_diameter[1]:R:1:c_diameter[2]:R:1:c_diameter[3]:R:1:forces:R:3:energies:R:1 separation_distance=3.066813732108731 old_energy=-0.44244124617151437 distance=3.0668137330377068 gb_cutoff=5.0 gb_epsilon=1.0 gb_sigma=1.0 energy=-0.011899541921418687 pbc="F F F"
X       10.00000000      10.00000000      10.00000000       0.73530689       0.23722815       0.51120805       0.37644776       0.23101938      -0.22815573       0.38110076      -0.01397948      -0.00038516       0.01771188       1.00000000       1.50000000       2.00000000       0.03493590       0.04143401       0.02899254      -0.01189954
X       11.55848644      11.89867759      11.83616173       0.90183433      -0.41208643       0.03662894       0.12465125      -0.00522409      -0.01870565       0.36311474      -0.00705258       0.01934865      -0.01946954       1.00000000       1.50000000       2.00000000      -0.03493590      -0.04143401      -0.02899254      -0.01189954
2
Properties=species:S:1:pos:R:3:quaternions:R:4:old_torques:R:3:torques:R:3:c_diameter[1]:R:1:c_diameter[2]:R:1:c_diameter[3]:R:1:forces:R:3:energies:R:1 separation_distance=2.7265849040818804 old_energy=-0.5578189660809805 distance=2.7265849075022053 gb_cutoff=5.0 gb_epsilon=1.0 gb_sigma=1.0 energy=-0.030438396232703765 pbc="F F F"
X       10.00000000      10.00000000      10.00000000       0.41393056       0.45923115       0.75557134       0.21651835      -0.20458293       0.19721371      -1.84674230      -0.00982267      -0.00493360       0.01553478       1.00000000       1.50000000       2.00000000       0.09648348       0.11497541       0.09869812      -0.03043840
X       11.36923342      11.95739089      11.31456685       0.45657504      -0.13238934       0.55805318       0.68013891      -0.80111973      -1.61455400       1.86151054       0.05187060      -0.00337318      -0.04696248       1.00000000       1.50000000       2.00000000      -0.09648348      -0.11497541      -0.09869812      -0.03043840
2
Properties=species:S:1:pos:R:3:quaternions:R:4:old_torques:R:3:torques:R:3:c_diameter[1]:R:1:c_diameter[2]:R:1:c_diameter[3]:R:1:forces:R:3:energies:R:1 separation_distance=3.0244313681909643 old_energy=-0.19235356383008326 distance=3.024431369474149 gb_cutoff=5.0 gb_epsilon=1.0 gb_sigma=1.0 energy=-0.0068087592010721894 pbc="F F F"
X       10.00000000      10.00000000      10.00000000       0.33160146       0.14474952      -0.77981867      -0.51085310       0.05627034       0.53402200      -0.10646552      -0.00540423       0.00484765      -0.00261644       1.00000000       1.50000000       2.00000000       0.02139731       0.02194741       0.00867908      -0.00680876
X       11.88265586      11.90673189      11.40255678       0.90597060       0.13730145       0.39014871       0.09027498       0.00729983      -0.05497377       0.17842337      -0.00882957       0.00882357       0.00313692       1.00000000       1.50000000       2.00000000      -0.02139731      -0.02194741      -0.00867908      -0.00680876
2
Properties=species:S:1:pos:R:3:quaternions:R:4:old_torques:R:3:torques:R:3:c_diameter[1]:R:1:c_diameter[2]:R:1:c_diameter[3]:R:1:forces:R:3:energies:R:1 separation_distance=2.772752145974374 old_energy=-0.2932554889368079 distance=2.7727521488802176 gb_cutoff=5.0 gb_epsilon=1.0 gb_sigma=1.0 energy=-0.005194897062636679 pbc="F F F"
X       10.00000000      10.00000000      10.00000000       0.10615676      -0.43304374       0.63622525       0.62961996      -0.07310481      -0.54011789      -0.18952828      -0.00122960      -0.00071595       0.00157218       1.00000000       1.50000000       2.00000000       0.01548474       0.00852547       0.01458193      -0.00519490
X       11.89888997      11.10252007      11.69316888       0.01760247       0.37543290       0.10905546      -0.92024301       0.06785307      -0.18049116       0.39748720       0.00287141      -0.00075525      -0.00245549       1.00000000       1.50000000       2.00000000      -0.01548474      -0.00852547      -0.01458193      -0.00519490
2
Properties=species:S:1:pos:R:3:quaternions:R:4:old_torques:R:3:torques:R:3:c_diameter[1]:R:1:c_diameter[2]:R:1:c_diameter[3]:R:1:forces:R:3:energies:R:1 separation_distance=2.352757838068604 old_energy=-0.8072099219318601 distance=2.35275783737056 gb_cutoff=5.0 gb_epsilon=1.0 gb_sigma=1.0 energy=-0.03135244926837032 pbc="F F F"
X       10.00000000      10.00000000      10.00000000       0.10660350       0.96587891       0.23509069       0.02111829       0.03700952       0.40324525      -0.24746440      -0.01803718       0.04275080      -0.00326047       1.00000000       1.50000000       2.00000000       0.16036285       0.08869265       0.05415485      -0.03135245
X       11.63357323      11.35092069      11.02074543       0.68137348       0.66962029       0.18641487      -0.22932148      -0.00612133      -0.08943971      -0.38011230       0.00066347       0.03247293      -0.06849108       1.00000000       1.50000000       2.00000000      -0.16036285      -0.08869265      -0.05415485      -0.03135245
2
Properties=species:S:1:pos:R:3:quaternions:R:4:old_torques:R:3:torques:R:3:c_diameter[1]:R:1:c_diameter[2]:R:1:c_diameter[3]:R:1:forces:R:3:energies:R:1 separation_distance=2.8353687832951557 old_energy=-0.6423706258748902 distance=2.8353687877858396 gb_cutoff=5.0 gb_epsilon=1.0 gb_sigma=1.0 energy=-0.0050723402440874 pbc="F F F"
X       10.00000000      10.00000000      10.00000000       0.03525197      -0.89832105      -0.03478163      -0.43653960       0.01362170       0.00710055       0.15723984       0.00324483      -0.00092172      -0.00161195       1.00000000       1.50000000       2.00000000       0.01326586       0.01071573       0.01428864      -0.00507234
X       11.63925481      11.63751474      11.63422927       0.33271608      -0.23016366       0.85204557       0.33217923      -0.02213738       0.08177014       0.09381903       0.00264107      -0.00082155      -0.00254528       1.00000000       1.50000000       2.00000000      -0.01326586      -0.01071573      -0.01428864      -0.00507234
2
Properties=species:S:1:pos:R:3:quaternions:R:4:old_torques:R:3:torques:R:3:c_diameter[1]:R:1:c_diameter[2]:R:1:c_diameter[3]:R:1:forces:R:3:energies:R:1 separation_distance=2.6411872407889816 old_energy=-0.38322457093146534 distance=2.6411872436685786 gb_cutoff=5.0 gb_epsilon=1.0 gb_sigma=1.0 energy=-0.01340543684485907 pbc="F F F"
X       10.00000000      10.00000000      10.00000000       0.77213589       0.45871712       0.33709178      -0.28240735       0.48054104       3.98877986       1.96959568       0.01125243      -0.00767232      -0.00241888       1.00000000       1.50000000       2.00000000       0.02973391       0.04612752       0.04254986      -0.01340544
X       11.04873818      11.75739753      11.66960241       0.39154836       0.02346883       0.29364477      -0.87172923      -0.30356141      -0.14675853       1.86627245      -0.01349003       0.01269247      -0.00145973       1.00000000       1.50000000       2.00000000      -0.02973391      -0.04612752      -0.04254986      -0.01340544
2
Properties=species:S:1:pos:R:3:quaternions:R:4:old_torques:R:3:torques:R:3:c_diameter[1]:R:1:c_diameter[2]:R:1:c_diameter[3]:R:1:forces:R:3:energies:R:1 separation_distance=3.1175223367072125 old_energy=-0.43271996007031316 distance=3.1175223369012364 gb_cutoff=5.0 gb_epsilon=1.0 gb_sigma=1.0 energy=-0.010688837680465314 pbc="F F F"
X       10.00000000      10.00000000      10.00000000       0.62552604      -0.45977220       0.37062206       0.50986859      -0.39628206      -0.67512742      -0.42099400       0.01095609      -0.00060072      -0.01322082       1.00000000       1.50000000       2.00000000       0.03321923       0.02896707       0.03212149      -0.01068884
X       11.43210805      11.92637816      11.98924087       0.98614923      -0.12263481       0.02999445      -0.10756732       0.40351116      -0.42461970       0.43243437      -0.00670044       0.02068034      -0.00928801       1.00000000       1.50000000       2.00000000      -0.03321923      -0.02896707      -0.03212149      -0.01068884
2
Properties=species:S:1:pos:R:3:quaternions:R:4:old_torques:R:3:torques:R:3:c_diameter[1]:R:1:c_diameter[2]:R:1:c_diameter[3]:R:1:forces:R:3:energies:R:1 separation_distance=2.928905291908057 old_energy=-0.379713492841417 distance=2.9289052946666563 gb_cutoff=5.0 gb_epsilon=1.0 gb_sigma=1.0 energy=-0.006320068419694536 pbc="F F F"
X       10.00000000      10.00000000      10.00000000       0.13554811       0.25054095      -0.71939127      -0.63350781       0.04881987       0.25193814      -0.08795816      -0.00245525       0.00456156       0.00219459       1.00000000       1.50000000       2.00000000       0.02095138       0.01242661       0.01591971      -0.00632007
X       11.96200989      11.07293218      11.89151261       0.01395937      -0.58524969       0.66981846      -0.45676160       0.21954093      -0.07786797       0.13687180      -0.00396907       0.00383361      -0.00029287       1.00000000       1.50000000       2.00000000      -0.02095138      -0.01242661      -0.01591971      -0.00632007
2
Properties=species:S:1:pos:R:3:quaternions:R:4:old_torques:R:3:torques:R:3:c_diameter[1]:R:1:c_diameter[2]:R:1:c_diameter[3]:R:1:forces:R:3:energies:R:1 separation_distance=2.4656336159275534 old_energy=-0.7585289223060651 distance=2.465633614635784 gb_cutoff=5.0 gb_epsilon=1.0 gb_sigma=1.0 energy=-0.15058791316848363 pbc="F F F"
X       10.00000000      10.00000000      10.00000000       0.83853359      -0.21347062       0.03490535      -0.50007332       0.18128062      -1.05317099       0.31965749      -0.36250042       0.03889804       0.14406460       1.00000000       1.50000000       2.00000000       0.39978522       0.83429021       0.62601408      -0.15058791
X       11.02355710      11.36458924      11.78033036       0.36797710       0.54451621      -0.75291475       0.03484715      -0.03399054       0.44101574       0.34375429      -0.26855969       0.03209057       0.16433646       1.00000000       1.50000000       2.00000000      -0.39978522      -0.83429021      -0.62601408      -0.15058791
2
Properties=species:S:1:pos:R:3:quaternions:R:4:old_torques:R:3:torques:R:3:c_diameter[1]:R:1:c_diameter[2]:R:1:c_diameter[3]:R:1:forces:R:3:energies:R:1 separation_distance=2.9751596134095384 old_energy=-0.4480810321998518 distance=2.9751596112418515 gb_cutoff=5.0 gb_epsilon=1.0 gb_sigma=1.0 energy=-0.009615950240386629 pbc="F F F"
X       10.00000000      10.00000000      10.00000000       0.90939174      -0.05455659       0.16938015      -0.37595293      -0.10779357       2.05193006      -0.63142593      -0.01144322       0.00592842       0.00512022       1.00000000       1.50000000       2.00000000       0.02905450       0.02327918       0.03030882      -0.00961595
X       11.70283574      11.43116501      11.97577627       0.83232025      -0.17998938      -0.46477955      -0.24254235      -4.16291094       2.76898915      -1.25014604       0.00882568      -0.00013418      -0.00706137       1.00000000       1.50000000       2.00000000      -0.02905450      -0.02327918      -0.03030882      -0.00961595
2
Properties=species:S:1:pos:R:3:quaternions:R:4:old_torques:R:3:torques:R:3:c_diameter[1]:R:1:c_diameter[2]:R:1:c_diameter[3]:R:1:forces:R:3:energies:R:1 separation_distance=2.9091806023529667 old_energy=-0.40843704652030954 distance=2.9091806056439693 gb_cutoff=5.0 gb_epsilon=1.0 gb_sigma=1.0 energy=-0.007026181207739693 pbc="F F F"
X       10.00000000      10.00000000      10.00000000       0.14657128      -0.21426341       0.47975324       0.83811985       0.08086830       0.28403361      -0.49008384       0.00649420       0.00557925      -0.01130304       1.00000000       1.50000000       2.00000000       0.02161281       0.01573003       0.01946425      -0.00702618
X       11.82125680      11.44370551      11.74987710       0.44772612       0.38587084      -0.49158914      -0.63951945      -0.38475237       0.85089323       0.52339101      -0.00591917      -0.00320888       0.00874892       1.00000000       1.50000000       2.00000000      -0.02161281      -0.01573003      -0.01946425      -0.00702618
2
Properties=species:S:1:pos:R:3:quaternions:R:4:old_torques:R:3:torques:R:3:c_diameter[1]:R:1:c_diameter[2]:R:1:c_diameter[3]:R:1:forces:R:3:energies:R:1 separation_distance=2.8367824767537475 old_energy=-0.35880965269756 distance=2.836782477265159 gb_cutoff=5.0 gb_epsilon=1.0 gb_sigma=1.0 energy=-0.020630829525176194 pbc="F F F"
X       10.00000000      10.00000000      10.00000000       0.53505012       0.06066567      -0.61710017       0.57378430       0.10985471       0.73679477      -0.21517482       0.02112236      -0.03727995       0.00485855       1.00000000       1.50000000       2.00000000       0.07555170       0.06133480       0.06411361      -0.02063083
X       11.86937484      11.85781374      11.04942872       0.58716219      -0.76915870       0.09472439      -0.23380066       0.06288031       1.09626766      -0.06855091       0.03362230      -0.00328630      -0.03056180       1.00000000       1.50000000       2.00000000      -0.07555170      -0.06133480      -0.06411361      -0.02063083
2
Properties=species:S:1:pos:R:3:quaternions:R:4:old_torques:R:3:torques:R:3:c_diameter[1]:R:1:c_diameter[2]:R:1:c_diameter[3]:R:1:forces:R:3:energies:R:1 separation_distance=2.7179216755867395 old_energy=-0.43602904317307223 distance=2.7179216787929694 gb_cutoff=5.0 gb_epsilon=1.0 gb_sigma=1.0 energy=-0.013263838565581271 pbc="F F F"
X       10.00000000      10.00000000      10.00000000       0.65092350      -0.26198521      -0.59386729       0.39368006       0.17064561       0.33649208      -0.60189769       0.00210787      -0.02241100       0.02421490       1.00000000       1.50000000       2.00000000       0.04164731       0.04068889       0.03898738      -0.01326384
X       11.88119234      11.21542482      11.53979094       0.20298228       0.16275149      -0.91354723      -0.31263654      -0.00417400      -0.12762883      -0.43433413      -0.01737403       0.01319640       0.00170956       1.00000000       1.50000000       2.00000000      -0.04164731      -0.04068889      -0.03898738      -0.01326384
2
Properties=species:S:1:pos:R:3:quaternions:R:4:old_torques:R:3:torques:R:3:c_diameter[1]:R:1:c_diameter[2]:R:1:c_diameter[3]:R:1:forces:R:3:energies:R:1 separation_distance=2.9168304335203237 old_energy=-0.4135569074189975 distance=2.9168304363207147 gb_cutoff=5.0 gb_epsilon=1.0 gb_sigma=1.0 energy=-0.009984010332879425 pbc="F F F"
X       10.00000000      10.00000000      10.00000000       0.55626657       0.80229958       0.08893220      -0.19741823      -0.10555970      -0.53068750      -0.40828688       0.00461672       0.01259411      -0.01789845       1.00000000       1.50000000       2.00000000       0.04143305       0.01954222       0.02174193      -0.00998401
X       11.98177041      11.65186752      11.36081576       0.91678935      -0.14497248      -0.24414248      -0.28084642       0.11173148      -1.32818023       0.17441225       0.00470471       0.00070113      -0.01181527       1.00000000       1.50000000       2.00000000      -0.04143305      -0.01954222      -0.02174193      -0.00998401
2
Properties=species:S:1:pos:R:3:quaternions:R:4:old_torques:R:3:torques:R:3:c_diameter[1]:R:1:c_diameter[2]:R:1:c_diameter[3]:R:1:forces:R:3:energies:R:1 separation_distance=3.096005469553999 old_energy=-0.2905098959239731 distance=3.096005469730889 gb_cutoff=5.0 gb_epsilon=1.0 gb_sigma=1.0 energy=-0.006682836655847505 pbc="F F F"
X       10.00000000      10.00000000      10.00000000       0.65277578      -0.23818036       0.13422459       0.70649675      -0.11077164      -0.12585754      -0.37574451      -0.00142415       0.00732882      -0.00285243       1.00000000       1.50000000       2.00000000       0.02326308       0.01439905       0.01571860      -0.00668284
X       11.97910266      11.57119904      11.78878062       0.88584841       0.42716300       0.06595354      -0.16868460      -0.13918402      -0.82685867      -0.13771652       0.00036447       0.00317501      -0.00520131       1.00000000       1.50000000       2.00000000      -0.02326308      -0.01439905      -0.01571860      -0.00668284
2
Properties=species:S:1:pos:R:3:quaternions:R:4:old_torques:R:3:torques:R:3:c_diameter[1]:R:1:c_diameter[2]:R:1:c_diameter[3]:R:1:forces:R:3:energies:R:1 separation_distance=2.8045738819976798 old_energy=-0.1839196759576236 distance=2.8045738783302974 gb_cutoff=5.0 gb_epsilon=1.0 gb_sigma=1.0 energy=-0.020104988671452852 pbc="F F F"
X       10.00000000      10.00000000      10.00000000       0.89956197      -0.20742410      -0.06976228      -0.37801685       0.01799086      -0.11962621       0.15477323      -0.01076663       0.02365088      -0.02110636       1.00000000       1.50000000       2.00000000       0.08235688       0.06860531       0.03822740      -0.02010499
X       11.66872455      11.95878559      11.11541563       0.59918896       0.57546001       0.43687786      -0.34490014       0.02138304       0.26115413      -0.03892646       0.00912248       0.00442028      -0.02572976       1.00000000       1.50000000       2.00000000      -0.08235688      -0.06860531      -0.03822740      -0.02010499
2
Properties=species:S:1:pos:R:3:quaternions:R:4:old_torques:R:3:torques:R:3:c_diameter[1]:R:1:c_diameter[2]:R:1:c_diameter[3]:R:1:forces:R:3:energies:R:1 separation_distance=2.9933445846375286 old_energy=-0.4724824357241502 distance=2.9933445826957104 gb_cutoff=5.0 gb_epsilon=1.0 gb_sigma=1.0 energy=-0.00592801396471312 pbc="F F F"
X       10.00000000      10.00000000      10.00000000       0.39284131      -0.85069645      -0.31204695      -0.15690108       0.52897752      -1.19452270      -3.15268455      -0.00178342       0.00268778      -0.00094922       1.00000000       1.50000000       2.00000000       0.01610480       0.01234813       0.01764836      -0.00592801
X       11.79299418      11.47071234      11.89269355       0.58190922      -0.72270650       0.36988038      -0.04759709      -0.07685001     -12.10491540       0.01938683       0.00436787      -0.00384973      -0.00059619       1.00000000       1.50000000       2.00000000      -0.01610480      -0.01234813      -0.01764836      -0.00592801
2
Properties=species:S:1:pos:R:3:quaternions:R:4:old_torques:R:3:torques:R:3:c_diameter[1]:R:1:c_diameter[2]:R:1:c_diameter[3]:R:1:forces:R:3:energies:R:1 separation_distance=2.9708542881414886 old_energy=-0.5311475936438111 distance=2.9708542864622096 gb_cutoff=5.0 gb_epsilon=1.0 gb_sigma=1.0 energy=-0.012917344959192145 pbc="F F F"
X       10.00000000      10.00000000      10.00000000       0.17641172       0.93560017       0.03073538      -0.30428039       0.60089105       0.70718647      -0.53769391      -0.01797676       0.02646923      -0.00732334       1.00000000       1.50000000       2.00000000       0.05278856       0.04152478       0.01727022      -0.01291734
X       11.73950334      11.89774198      11.48279422       0.30971437       0.93967212       0.14034245      -0.03738077      -0.08156567      -0.18282707      -0.48516882      -0.01082152       0.02176374      -0.02062324       1.00000000       1.50000000       2.00000000      -0.05278856      -0.04152478      -0.01727022      -0.01291734
2
Properties=species:S:1:pos:R:3:quaternions:R:4:old_torques:R:3:torques:R:3:c_diameter[1]:R:1:c_diameter[2]:R:1:c_diameter[3]:R:1:forces:R:3:energies:R:1 separation_distance=3.0607811978893666 old_energy=-0.5030632728956766 distance=3.0607811979569077 gb_cutoff=5.0 gb_epsilon=1.0 gb_sigma=1.0 energy=-0.004723463678504414 pbc="F F F"
X       10.00000000      10.00000000      10.00000000       0.90786162      -0.35841803      -0.17436528       0.13007901       0.30682384      -0.24050032       0.19291796      -0.00047967       0.00658574      -0.00455227       1.00000000       1.50000000       2.00000000       0.01315490       0.00991031       0.01280042      -0.00472346
X       11.94960306      11.35366581      11.93261955       0.38424202       0.56558414      -0.30307344      -0.66379149      -0.14416746       0.05787387       0.30126348      -0.00134569      -0.00611806       0.00606609       1.00000000       1.50000000       2.00000000      -0.01315490      -0.00991031      -0.01280042      -0.00472346
2
Properties=species:S:1:pos:R:3:quaternions:R:4:old_torques:R:3:torques:R:3:c_diameter[1]:R:1:c_diameter[2]:R:1:c_diameter[3]:R:1:forces:R:3:energies:R:1 separation_distance=2.7102206806170495 old_energy=-0.6594656790793924 distance=2.7102206845446504 gb_cutoff=5.0 gb_epsilon=1.0 gb_sigma=1.0 energy=-0.03696075325793576 pbc="F F F"
X       10.00000000      10.00000000      10.00000000       0.38278423       0.69598791       0.60749586      -0.00508302       0.08679991       0.97697336      -0.14753276      -0.03952575       0.05209536      -0.01054071       1.00000000       1.50000000       2.00000000       0.13253630       0.14297400       0.11397088      -0.03696075
X       11.58488482      11.42228419      11.67646770       0.47602829       0.62838428      -0.58671032      -0.18520599      -0.35739306       0.96797565       0.53073920      -0.03806657      -0.01053326       0.04863376       1.00000000       1.50000000       2.00000000      -0.13253630      -0.14297400      -0.11397088      -0.03696075
2
Properties=species:S:1:pos:R:3:quaternions:R:4:old_torques:R:3:torques:R:3:c_diameter[1]:R:1:c_diameter[2]:R:1:c_diameter[3]:R:1:forces:R:3:energies:R:1 separation_distance=2.939637938051918 old_energy=-0.15023977384748935 distance=2.939637937863227 gb_cutoff=5.0 gb_epsilon=1.0 gb_sigma=1.0 energy=-0.01370984904416609 pbc="F F F"
X       10.00000000      10.00000000      10.00000000       0.60885948       0.39998707      -0.67796985       0.09827187      -0.00630664       0.34557477       0.01893273       0.01566144      -0.01438826       0.01363063       1.00000000       1.50000000       2.00000000       0.01165537       0.05377455       0.04845787      -0.01370985
X       11.07446853      11.96783220      11.90121672       0.86477684      -0.11340365       0.26083384      -0.41384337       0.03613084      -0.20349490       0.10411714      -0.02254156      -0.01551881       0.02121262       1.00000000       1.50000000       2.00000000      -0.01165537      -0.05377455      -0.04845787      -0.01370985
2
Properties=species:S:1:pos:R:3:quaternions:R:4:old_torques:R:3:torques:R:3:c_diameter[1]:R:1:c_diameter[2]:R:1:c_diameter[3]:R:1:forces:R:3:energies:R:1 separation_distance=2.813976373304378 old_energy=-0.6290249757999657 distance=2.813976375401478 gb_cutoff=5.0 gb_epsilon=1.0 gb_sigma=1.0 energy=-0.010730489715603088 pbc="F F F"
X       10.00000000      10.00000000      10.00000000       0.02605751      -0.27988311       0.94352881       0.17532779      -0.00772989      -0.18919719      -0.04971262      -0.00867917       0.00897307      -0.00658884       1.00000000       1.50000000       2.00000000       0.02776438       0.03865446       0.02577158      -0.01073049
X       11.61252635      11.92034805      11.27690453       0.63637956       0.58426576      -0.13946143      -0.48394740      -0.33230157      -0.32151615      -0.26390554       0.00881152      -0.01507796       0.01560291       1.00000000       1.50000000       2.00000000      -0.02776438      -0.03865446      -0.02577158      -0.01073049
2
Properties=species:S:1:pos:R:3:quaternions:R:4:old_torques:R:3:torques:R:3:c_diameter[1]:R:1:c_diameter[2]:R:1:c_diameter[3]:R:1:forces:R:3:energies:R:1 separation_distance=3.0216935823930284 old_energy=-0.5405800361963448 distance=3.021693581740282 gb_cutoff=5.0 gb_epsilon=1.0 gb_sigma=1.0 energy=-0.003754166748810934 pbc="F F F"
X       10.00000000      10.00000000      10.00000000       0.39730187      -0.82758263      -0.39360207       0.04832832      -0.65655056       0.90201677       0.39721814      -0.00350521       0.00244460       0.00203124       1.00000000       1.50000000       2.00000000       0.01004470       0.00801141       0.00922194      -0.00375417
X       11.98049690      11.41000300      11.79447922       0.11016830      -0.55773006       0.26745485       0.77798973       0.12992036      -0.92359233       0.22272423       0.00213188      -0.00268363      -0.00032773       1.00000000       1.50000000       2.00000000      -0.01004470      -0.00801141      -0.00922194      -0.00375417
2
Properties=species:S:1:pos:R:3:quaternions:R:4:old_torques:R:3:torques:R:3:c_diameter[1]:R:1:c_diameter[2]:R:1:c_diameter[3]:R:1:forces:R:3:energies:R:1 separation_distance=2.9182829389711777 old_energy=-0.2076772323327619 distance=2.918282936503212 gb_cutoff=5.0 gb_epsilon=1.0 gb_sigma=1.0 energy=-0.021608723772473356 pbc="F F F"
X       10.00000000      10.00000000      10.00000000       0.62703585       0.76928373       0.11309383      -0.04731155      -0.09043809      -0.20711892      -0.30674316       0.01038463       0.02464367      -0.04093698       1.00000000       1.50000000       2.00000000       0.06446750       0.07551354       0.06915142      -0.02160872
X       11.38341967      11.85837153      11.77453672       0.90940498      -0.18054107       0.31991484      -0.19504357      -0.03102848       0.17535926       0.09703235      -0.01587714      -0.00590915       0.02559932       1.00000000       1.50000000       2.00000000      -0.06446750      -0.07551354      -0.06915142      -0.02160872
2
Properties=species:S:1:pos:R:3:quaternions:R:4:old_torques:R:3:torques:R:3:c_diameter[1]:R:1:c_diameter[2]:R:1:c_diameter[3]:R:1:forces:R:3:energies:R:1 separation_distance=2.8084198438351673 old_energy=-0.6205536032148545 distance=2.8084198498223496 gb_cutoff=5.0 gb_epsilon=1.0 gb_sigma=1.0 energy=-0.013791868558052927 pbc="F F F"
X       10.00000000      10.00000000      10.00000000       0.04064029      -0.18791084      -0.54478277       0.81624115       0.20032376      -0.13663877       0.12336242       0.01471041       0.00288509      -0.01116093       1.00000000       1.50000000       2.00000000       0.03031706       0.03772587       0.05517311      -0.01379187
X       11.29019043      11.72606110      11.80092859       0.22018061      -0.67018621       0.13386836      -0.69602457      -0.08756986      -0.17035696      -0.07109487       0.01258014      -0.01947005       0.00750539       1.00000000       1.50000000       2.00000000      -0.03031706      -0.03772587      -0.05517311      -0.01379187
2
Properties=species:S:1:pos:R:3:quaternions:R:4:old_torques:R:3:torques:R:3:c_diameter[1]:R:1:c_diameter[2]:R:1:c_diameter[3]:R:1:forces:R:3:energies:R:1 separation_distance=3.09429488712571 old_energy=-0.6537780738151161 distance=3.0942948854757635 gb_cutoff=5.0 gb_epsilon=1.0 gb_sigma=1.0 energy=-0.01674123784152261 pbc="F F F"
X       10.00000000      10.00000000      10.00000000       0.03840564      -0.69454503      -0.29257864       0.65614781       0.34697745      -0.54746813       0.13623849       0.01976240      -0.03191767       0.00383051       1.00000000       1.50000000       2.00000000       0.04595473       0.04317394       0.06584786      -0.01674124
X       11.85601779      11.70332383      11.79681572       0.33882254       0.15093671      -0.86844812       0.32896088       0.04634494      -0.31289800       0.12876746       0.01482222      -0.00772495      -0.00197470       1.00000000       1.50000000       2.00000000      -0.04595473      -0.04317394      -0.06584786      -0.01674124
2
Properties=species:S:1:pos:R:3:quaternions:R:4:old_torques:R:3:torques:R:3:c_diameter[1]:R:1:c_diameter[2]:R:1:c_diameter[3]:R:1:forces:R:3:energies:R:1 separation_distance=3.041238771572378 old_energy=-0.30340442272401086 distance=3.041238771179271 gb_cutoff=5.0 gb_epsilon=1.0 gb_sigma=1.0 energy=-0.005907745992049285 pbc="F F F"
X       10.00000000      10.00000000      10.00000000       0.14997457       0.45647367       0.87516749       0.05675638      -0.42867704       0.59730695       0.38200658      -0.00340401       0.00463242      -0.00070361       1.00000000       1.50000000       2.00000000       0.01465926       0.01543263       0.01641884      -0.00590775
X       11.69936206      11.77899466      11.78787020       0.13151888      -0.78910516      -0.36030217      -0.47978973      -0.03597763      -0.28881341      -0.11276873       0.00502151      -0.00632512       0.00085049       1.00000000       1.50000000       2.00000000      -0.01465926      -0.01543263      -0.01641884      -0.00590775
2
Properties=species:S:1:pos:R:3:quaternions:R:4:old_torques:R:3:torques:R:3:c_diameter[1]:R:1:c_diameter[2]:R:1:c_diameter[3]:R:1:forces:R:3:energies:R:1 separation_distance=2.55689245041445 old_energy=-0.6698518702475607 distance=2.5568924439415484 gb_cutoff=5.0 gb_epsilon=1.0 gb_sigma=1.0 energy=-0.015308355757553956 pbc="F F F"
X       10.00000000      10.00000000      10.00000000       0.12306915       0.04348196       0.30508572      -0.94333770       0.71166961      -1.25629520      -2.70671173      -0.01127061       0.02196060      -0.00234964       1.00000000       1.50000000       2.00000000       0.05442997       0.02934728       0.05323165      -0.01530836
X       11.34866762      11.03292642      11.91098342       0.15948851      -0.20048987      -0.23400485       0.93787470       0.06593707      -0.72468831      -0.86631004       0.01017281       0.01026237      -0.01429278       1.00000000       1.50000000       2.00000000      -0.05442997      -0.02934728      -0.05323165      -0.01530836
2
Properties=species:S:1:pos:R:3:quaternions:R:4:old_torques:R:3:torques:R:3:c_diameter[1]:R:1:c_diameter[2]:R:1:c_diameter[3]:R:1:forces:R:3:energies:R:1 separation_distance=2.7586986496285344 old_energy=-0.5949728865674576 distance=2.75869865229431 gb_cutoff=5.0 gb_epsilon=1.0 gb_sigma=1.0 energy=-0.007912553964905153 pbc="F F F"
X       10.00000000      10.00000000      10.00000000       0.19448253      -0.69894207      -0.60259086      -0.33247674      -0.59641658       3.62992855      -1.98187565       0.00592434      -0.00795314       0.00342374       1.00000000       1.50000000       2.00000000       0.02058589       0.02524022       0.01924858      -0.00791255
X       11.59076510      11.69153989      11.48948899       0.08211086      -0.57921211       0.80022520      -0.13194990      -0.76905604      10.32601496      -1.07221286      -0.01095963       0.00799561       0.00190567       1.00000000       1.50000000       2.00000000      -0.02058589      -0.02524022      -0.01924858      -0.00791255
2
Properties=species:S:1:pos:R:3:quaternions:R:4:old_torques:R:3:torques:R:3:c_diameter[1]:R:1:c_diameter[2]:R:1:c_diameter[3]:R:1:forces:R:3:energies:R:1 separation_distance=2.9512733573050234 old_energy=-0.5611961936208864 distance=2.9512733555779023 gb_cutoff=5.0 gb_epsilon=1.0 gb_sigma=1.0 energy=-0.0037884592462006546 pbc="F F F"
X       10.00000000      10.00000000      10.00000000       0.14233480       0.75908214       0.47854093       0.41777229       0.01275328       0.23772693      -0.05346141      -0.00208763      -0.00017628       0.00082174       1.00000000       1.50000000       2.00000000       0.00612746       0.01002748       0.01053274      -0.00378846
X       11.25485000      11.85475584      11.92230244       0.58005134      -0.15086397       0.79227078      -0.11440064      -0.63921285       1.22300418       0.41793312       0.00234742      -0.00126188       0.00039630       1.00000000       1.50000000       2.00000000      -0.00612746      -0.01002748      -0.01053274      -0.00378846
2
Properties=species:S:1:pos:R:3:quaternions:R:4:old_torques:R:3:torques:R:3:c_diameter[1]:R:1:c_diameter[2]:R:1:c_diameter[3]:R:1:forces:R:3:energies:R:1 separation_distance=2.9476016518848636 old_energy=-0.47897553653119146 distance=2.9476016553745357 gb_cutoff=5.0 gb_epsilon=1.0 gb_sigma=1.0 energy=-0.01285442644227877 pbc="F F F"
X       10.00000000      10.00000000      10.00000000       0.46345983      -0.11823155       0.58953873       0.65089966       0.00426712      -0.05308245       0.98846730       0.02090890      -0.00334479      -0.01999024       1.00000000       1.50000000       2.00000000       0.04345084       0.03072076       0.04066061      -0.01285443
X       11.80981248      11.59796160      11.69099173       0.27773835      -0.20246229      -0.87513184      -0.34060930      -0.79140747      -0.66373036       0.87479365      -0.00788335       0.00323172       0.00615627       1.00000000       1.50000000       2.00000000      -0.04345084      -0.03072076      -0.04066061      -0.01285443
2
Properties=species:S:1:pos:R:3:quaternions:R:4:old_torques:R:3:torques:R:3:c_diameter[1]:R:1:c_diameter[2]:R:1:c_diameter[3]:R:1:forces:R:3:energies:R:1 separation_distance=3.164183339698775 old_energy=-0.5064116305087528 distance=3.164183339982445 gb_cutoff=5.0 gb_epsilon=1.0 gb_sigma=1.0 energy=-0.005599116824197426 pbc="F F F"
X       10.00000000      10.00000000      10.00000000       0.31325086       0.16240526      -0.61005448       0.70945892       0.07808069      -0.41808658       0.24865467       0.00404885      -0.00081878      -0.00211020       1.00000000       1.50000000       2.00000000       0.01646639       0.01107456       0.01621520      -0.00559912
X       11.89750248      11.74029489      11.83927003       0.76676263      -0.19810614      -0.42706635      -0.43639817       0.49254218      -1.25217072       0.27507632       0.00380127       0.00033655      -0.00553219       1.00000000       1.50000000       2.00000000      -0.01646639      -0.01107456      -0.01621520      -0.00559912
2
Properties=species:S:1:pos:R:3:quaternions:R:4:old_torques:R:3:torques:R:3:c_diameter[1]:R:1:c_diameter[2]:R:1:c_diameter[3]:R:1:forces:R:3:energies:R:1 separation_distance=3.208800393639468 old_energy=-0.4450145941671814 distance=3.2088003943976036 gb_cutoff=5.0 gb_epsilon=1.0 gb_sigma=1.0 energy=-0.005868137200314636 pbc="F F F"
X       10.00000000      10.00000000      10.00000000       0.00847867      -0.80223260       0.53383375       0.26715631       0.21362445      -0.64476529       0.48138977      -0.00594949       0.00001164       0.00779678       1.00000000       1.50000000       2.00000000       0.01552620       0.01623505       0.01492701      -0.00586814
X       11.86898842      11.87683098      11.81129449       0.56321249      -0.33751550      -0.49701963      -0.56731514       0.48594585      -1.17599090       0.46237857       0.00455850       0.00021248      -0.00659371       1.00000000       1.50000000       2.00000000      -0.01552620      -0.01623505      -0.01492701      -0.00586814
2
Properties=species:S:1:pos:R:3:quaternions:R:4:old_torques:R:3:torques:R:3:c_diameter[1]:R:1:c_diameter[2]:R:1:c_diameter[3]:R:1:forces:R:3:energies:R:1 separation_distance=2.7195602648828143 old_energy=-0.3661452332218042 distance=2.719560268125673 gb_cutoff=5.0 gb_epsilon=1.0 gb_sigma=1.0 energy=-0.027549544031409176 pbc="F F F"
X       10.00000000      10.00000000      10.00000000       0.76391199      -0.26528036      -0.10383580      -0.57903621       0.04254078      -0.94741319       0.06018690      -0.03421469       0.03267099      -0.00098020       1.00000000       1.50000000       2.00000000       0.09210450       0.11081749       0.07106909      -0.02754954
X       11.52370956      11.59614999      11.58953529       0.60139682      -0.20059686      -0.12782113       0.76272179      -0.01062289      -0.19847992      -0.22345021      -0.02849669       0.00544372       0.02282126       1.00000000       1.50000000       2.00000000      -0.09210450      -0.11081749      -0.07106909      -0.02754954
2
Properties=species:S:1:pos:R:3:quaternions:R:4:old_torques:R:3:torques:R:3:c_diameter[1]:R:1:c_diameter[2]:R:1:c_diameter[3]:R:1:forces:R:3:energies:R:1 separation_distance=2.921334148277057 old_energy=-0.7142748222447218 distance=2.921334148321637 gb_cutoff=5.0 gb_epsilon=1.0 gb_sigma=1.0 energy=-0.012291085657054904 pbc="F F F"
X       10.00000000      10.00000000      10.00000000       0.49069442       0.33791230      -0.75085258       0.28505204      -0.01336274       0.05011878      -0.10749345       0.02412728      -0.01660438       0.00967744       1.00000000       1.50000000       2.00000000       0.01361637       0.04123008       0.04783189      -0.01229109
X       11.20872129      11.93894496      11.82035120       0.29009730       0.53815081       0.38219261       0.69294016       0.05735114       1.62452480      -0.03734451      -0.00643709      -0.01642448       0.01375684       1.00000000       1.50000000       2.00000000      -0.01361637      -0.04123008      -0.04783189      -0.01229109
2
Properties=species:S:1:pos:R:3:quaternions:R:4:old_torques:R:3:torques:R:3:c_diameter[1]:R:1:c_diameter[2]:R:1:c_diameter[3]:R:1:forces:R:3:energies:R:1 separation_distance=3.2349433226812407 old_energy=-0.12767516578367905 distance=3.2349433221992503 gb_cutoff=5.0 gb_epsilon=1.0 gb_sigma=1.0 energy=-0.0101726577660728 pbc="F F F"
X       10.00000000      10.00000000      10.00000000       0.63084069      -0.38317493       0.10764415      -0.66605536      -0.00040848       0.00258571      -0.16131551      -0.01914013       0.00520319       0.01804503       1.00000000       1.50000000       2.00000000       0.02629423       0.03993756       0.01963877      -0.01017266
X       11.88151821      11.88078274      11.84049010       0.51959001      -0.00647598       0.17489168       0.83629970       0.08706234       0.35364165      -0.08963720      -0.01742829       0.00624036       0.00764449       1.00000000       1.50000000       2.00000000      -0.02629423      -0.03993756      -0.01963877      -0.01017266
2
Properties=species:S:1:pos:R:3:quaternions:R:4:old_torques:R:3:torques:R:3:c_diameter[1]:R:1:c_diameter[2]:R:1:c_diameter[3]:R:1:forces:R:3:energies:R:1 separation_distance=2.7189281422969676 old_energy=-0.660466057521357 distance=2.718928144490603 gb_cutoff=5.0 gb_epsilon=1.0 gb_sigma=1.0 energy=-0.016716958460155817 pbc="F F F"
X       10.00000000      10.00000000      10.00000000       0.45581810       0.30200428      -0.83471515      -0.06537504       0.32121438       1.10637721      -0.45036311      -0.02814527       0.00383219       0.01947507       1.00000000       1.50000000       2.00000000       0.04272126       0.07414969       0.03327028      -0.01671696
X       11.59939733      11.88388504      11.13378816       0.59759035       0.08600801      -0.20526441       0.77029534       0.00832321       1.26384403       0.00530495       0.00675260      -0.00860772       0.01863780       1.00000000       1.50000000       2.00000000      -0.04272126      -0.07414969      -0.03327028      -0.01671696
2
Properties=species:S:1:pos:R:3:quaternions:R:4:old_torques:R:3:torques:R:3:c_diameter[1]:R:1:c_diameter[2]:R:1:c_diameter[3]:R:1:forces:R:3:energies:R:1 separation_distance=2.8475064956482776 old_energy=-0.5663867132299978 distance=2.8475064928955143 gb_cutoff=5.0 gb_epsilon=1.0 gb_sigma=1.0 energy=-0.016045158424924492 pbc="F F F"
X       10.00000000      10.00000000      10.00000000       0.64077727       0.02847496       0.18877827       0.74361041      -1.01406873      -3.21812431       2.72350103      -0.03535487       0.00388059       0.01742014       1.00000000       1.50000000       2.00000000       0.02937578       0.06649405       0.04761559      -0.01604516
X       11.30861922      11.91014314      11.65745653       0.77604836       0.47586396       0.04093965      -0.41185724       0.71227739       5.73848208       1.73649570       0.01609646      -0.01750217       0.01348330       1.00000000       1.50000000       2.00000000      -0.02937578      -0.06649405      -0.04761559      -0.01604516
2
Properties=species:S:1:pos:R:3:quaternions:R:4:old_torques:R:3:torques:R:3:c_diameter[1]:R:1:c_diameter[2]:R:1:c_diameter[3]:R:1:forces:R:3:energies:R:1 separation_distance=2.660145790468933 old_energy=-0.6942508680624968 distance=2.66014579232103 gb_cutoff=5.0 gb_epsilon=1.0 gb_sigma=1.0 energy=-0.03523642816073919 pbc="F F F"
X       10.00000000      10.00000000      10.00000000       0.81123511      -0.48085949      -0.14103934      -0.30129660       0.21162516      -0.47248786       0.24625993       0.03403967       0.01599127      -0.08460821       1.00000000       1.50000000       2.00000000       0.18623063       0.06871842       0.09693477      -0.03523643
X       11.78221659      11.34261647      11.44826126       0.92095617      -0.25304686       0.29442645       0.03346775      -0.28608685       0.39768551       0.33104990      -0.00341567       0.08096058      -0.04295700       1.00000000       1.50000000       2.00000000      -0.18623063      -0.06871842      -0.09693477      -0.03523643
2
Properties=species:S:1:pos:R:3:quaternions:R:4:old_torques:R:3:torques:R:3:c_diameter[1]:R:1:c_diameter[2]:R:1:c_diameter[3]:R:1:forces:R:3:energies:R:1 separation_distance=3.07265518643653 old_energy=-0.07290136871244421 distance=3.0726551879622286 gb_cutoff=5.0 gb_epsilon=1.0 gb_sigma=1.0 energy=-0.005416153338557028 pbc="F F F"
X       10.00000000      10.00000000      10.00000000       0.31158303      -0.00378300      -0.55924927       0.76820697       0.00643917      -0.02585345       0.03295351       0.00362889      -0.00158773      -0.00099143       1.00000000       1.50000000       2.00000000       0.01336024       0.01227535       0.01642999      -0.00541615
X       11.46456485      11.88850584      11.93127041       0.14030414      -0.29885960       0.60075039       0.72807737       0.00308236       0.03637228      -0.04345909       0.00369221       0.00332718      -0.00626141       1.00000000       1.50000000       2.00000000      -0.01336024      -0.01227535      -0.01642999      -0.00541615
2
Properties=species:S:1:pos:R:3:quaternions:R:4:old_torques:R:3:torques:R:3:c_diameter[1]:R:1:c_diameter[2]:R:1:c_diameter[3]:R:1:forces:R:3:energies:R:1 separation_distance=2.6146791971068195 old_energy=-0.4213792203469525 distance=2.614679198972095 gb_cutoff=5.0 gb_epsilon=1.0 gb_sigma=1.0 energy=-0.022467002817769838 pbc="F F F"
X       10.00000000      10.00000000      10.00000000       0.53729376      -0.07897715      -0.23608042       0.80581888      -0.00334181       0.06672288      -0.35042108       0.00539421      -0.01122561       0.02905860       1.00000000       1.50000000       2.00000000       0.06342841       0.10196282       0.04427050      -0.02246700
X       11.28649978      11.92962996      11.20747416       0.14781431       0.21908230      -0.95121182       0.15921665      -0.13113852      -0.82255137      -0.34560592      -0.04308600       0.03085979      -0.02027681       1.00000000       1.50000000       2.00000000      -0.06342841      -0.10196282      -0.04427050      -0.02246700
2
Properties=species:S:1:pos:R:3:quaternions:R:4:old_torques:R:3:torques:R:3:c_diameter[1]:R:1:c_diameter[2]:R:1:c_diameter[3]:R:1:forces:R:3:energies:R:1 separation_distance=2.5854628542142826 old_energy=-0.6359746453111987 distance=2.5854628546940535 gb_cutoff=5.0 gb_epsilon=1.0 gb_sigma=1.0 energy=-0.040010784496293195 pbc="F F F"
X       10.00000000      10.00000000      10.00000000       0.87480650      -0.22041372       0.37385215      -0.21532753       0.04231086       0.06794731      -0.37266998      -0.02157759      -0.07687089       0.07970812       1.00000000       1.50000000       2.00000000       0.10135745       0.14443257       0.18201946      -0.04001078
X       11.62953650      11.20529088      11.60514886       0.48685551      -0.27029934      -0.79842908      -0.22895629      -1.25311973      -1.50990808       2.14845198       0.00912821      -0.05704267       0.03348481       1.00000000       1.50000000       2.00000000      -0.10135745      -0.14443257      -0.18201946      -0.04001078
2
Properties=species:S:1:pos:R:3:quaternions:R:4:old_torques:R:3:torques:R:3:c_diameter[1]:R:1:c_diameter[2]:R:1:c_diameter[3]:R:1:forces:R:3:energies:R:1 separation_distance=3.2502723489829686 old_energy=-0.05978438951163449 distance=3.250272346097249 gb_cutoff=5.0 gb_epsilon=1.0 gb_sigma=1.0 energy=-0.004014415423416813 pbc="F F F"
X       10.00000000      10.00000000      10.00000000       0.27475134      -0.86257005       0.06805651      -0.41934821       0.01029694       0.06688606      -0.02065307       0.00403974      -0.00115856      -0.00245984       1.00000000       1.50000000       2.00000000       0.00841573       0.00967067       0.01128444      -0.00401442
X       11.81010366      11.84120677      11.97427270       0.54098194      -0.38944591      -0.48583048       0.56536640      -0.01381472      -0.04149572      -0.06400391      -0.00235529      -0.00265250       0.00446965       1.00000000       1.50000000       2.00000000      -0.00841573      -0.00967067      -0.01128444      -0.00401442
2
Properties=species:S:1:pos:R:3:quaternions:R:4:old_torques:R:3:torques:R:3:c_diameter[1]:R:1:c_diameter[2]:R:1:c_diameter[3]:R:1:forces:R:3:energies:R:1 separation_distance=2.4973895685787775 old_energy=-0.3868547127704705 distance=2.497389567439161 gb_cutoff=5.0 gb_epsilon=1.0 gb_sigma=1.0 energy=-0.016144719862280048 pbc="F F F"
X       10.00000000      10.00000000      10.00000000       0.14106885      -0.77943708      -0.44789233      -0.41469250       0.00551995      -0.20816327       0.16921837       0.01861673      -0.00312273       0.00067669       1.00000000       1.50000000       2.00000000       0.02339548       0.06652249       0.05134519      -0.01614472
X       11.04825762      11.76778324      11.41882100       0.85167321      -0.05668215       0.29255323      -0.43110612       0.01771240      -0.10988315       0.11516118      -0.02223307      -0.01750626       0.02769787       1.00000000       1.50000000       2.00000000      -0.02339548      -0.06652249      -0.05134519      -0.01614472
2
Properties=species:S:1:pos:R:3:quaternions:R:4:old_torques:R:3:torques:R:3:c_diameter[1]:R:1:c_diameter[2]:R:1:c_diameter[3]:R:1:forces:R:3:energies:R:1 separation_distance=2.7850088928872316 old_energy=-0.19578294440585728 distance=2.7850088940652737 gb_cutoff=5.0 gb_epsilon=1.0 gb_sigma=1.0 energy=-0.005554113410388683 pbc="F F F"
X       10.00000000      10.00000000      10.00000000       0.01550255       0.23634284      -0.94590645      -0.22172667      -0.04092862      -0.35949946      -0.10252227      -0.00423399       0.00648200       0.00125889       1.00000000       1.50000000       2.00000000       0.01861477       0.01086845       0.01239688      -0.00555411
X       11.98128660      11.14954387      11.58408549       0.01244956      -0.36775729       0.48824766       0.79133672      -0.00176716      -0.01111911       0.12846286       0.00126818      -0.00155638      -0.00112386       1.00000000       1.50000000       2.00000000      -0.01861477      -0.01086845      -0.01239688      -0.00555411
2
Properties=species:S:1:pos:R:3:quaternions:R:4:old_torques:R:3:torques:R:3:c_diameter[1]:R:1:c_diameter[2]:R:1:c_diameter[3]:R:1:forces:R:3:energies:R:1 separation_distance=2.949164153572108 old_energy=-0.21906347578454313 distance=2.9491641508244046 gb_cutoff=5.0 gb_epsilon=1.0 gb_sigma=1.0 energy=-0.008920426439680332 pbc="F F F"
X       10.00000000      10.00000000      10.00000000       0.70247133       0.03183420      -0.63216520       0.32540402       0.01792785       0.05336294      -0.15992518       0.00557416      -0.01208565       0.00448875       1.00000000       1.50000000       2.00000000       0.01700025       0.02381860       0.03345947      -0.00892043
X       11.50696698      11.93359067      11.63946541       0.65372222       0.42570440      -0.61211807       0.12936186      -0.08102536       0.58542886       0.13051371       0.02007298      -0.01046534      -0.00146642       1.00000000       1.50000000       2.00000000      -0.01700025      -0.02381860      -0.03345947      -0.00892043
2
Properties=species:S:1:pos:R:3:quaternions:R:4:old_torques:R:3:torques:R:3:c_diameter[1]:R:1:c_diameter[2]:R:1:c_diameter[3]:R:1:forces:R:3:energies:R:1 separation_distance=2.764188535522863 old_energy=-0.6448423028667961 distance=2.7641885341412515 gb_cutoff=5.0 gb_epsilon=1.0 gb_sigma=1.0 energy=-0.022265652148328558 pbc="F F F"
X       10.00000000      10.00000000      10.00000000       0.73737562      -0.23157791       0.47653903       0.41899810      -0.32788052      -0.08707659      -0.20448369       0.03037170      -0.01275829      -0.01710962       1.00000000       1.50000000       2.00000000       0.07792619       0.06351673       0.07821885      -0.02226565
X       11.54396341      11.81263262      11.40402216       0.18727469      -0.41606920       0.29250267       0.84039086       0.00487337       0.17785834       0.12973255       0.02223144       0.00140135      -0.02607443       1.00000000       1.50000000       2.00000000      -0.07792619      -0.06351673      -0.07821885      -0.02226565
2
Properties=species:S:1:pos:R:3:quaternions:R:4:old_torques:R:3:torques:R:3:c_diameter[1]:R:1:c_diameter[2]:R:1:c_diameter[3]:R:1:forces:R:3:energies:R:1 separation_distance=2.66164823168235 old_energy=-0.4007420120593009 distance=2.6616482321451618 gb_cutoff=5.0 gb_epsilon=1.0 gb_sigma=1.0 energy=-0.014445948989579583 pbc="F F F"
X       10.00000000      10.00000000      10.00000000       0.64076409       0.76478720      -0.05123431      -0.04355425       4.84580929       6.36156833       3.63026107       0.01573786       0.01317271      -0.02786225       1.00000000       1.50000000       2.00000000       0.04560073       0.04472028       0.04277684      -0.01444595
X       11.31452517      11.84072654      11.40289725       0.06995606      -0.48448137       0.62387491       0.60923235      -0.02977428       4.14507064      -0.02563173       0.00026465      -0.00543080       0.00270971       1.00000000       1.50000000       2.00000000      -0.04560073      -0.04472028      -0.04277684      -0.01444595
2
Properties=species:S:1:pos:R:3:quaternions:R:4:old_torques:R:3:torques:R:3:c_diameter[1]:R:1:c_diameter[2]:R:1:c_diameter[3]:R:1:forces:R:3:energies:R:1 separation_distance=2.920527586469453 old_energy=-0.5487064075148038 distance=2.9205275893434037 gb_cutoff=5.0 gb_epsilon=1.0 gb_sigma=1.0 energy=-0.005589939506305175 pbc="F F F"
X       10.00000000      10.00000000      10.00000000       0.31269935       0.33894323      -0.32411354      -0.82600667      -0.42310265       0.65017746       0.44499320      -0.00246666       0.00200541       0.00057915       1.00000000       1.50000000       2.00000000       0.01388171       0.01443975       0.01557852      -0.00558994
X       11.41596303      11.70773328      11.89952024       0.09755980       0.07490660      -0.49345912       0.86102798      -0.11483070       0.28962787       0.46498146       0.00164201       0.00230457      -0.00383926       1.00000000       1.50000000       2.00000000      -0.01388171      -0.01443975      -0.01557852      -0.00558994
2
Properties=species:S:1:pos:R:3:quaternions:R:4:old_torques:R:3:torques:R:3:c_diameter[1]:R:1:c_diameter[2]:R:1:c_diameter[3]:R:1:forces:R:3:energies:R:1 separation_distance=2.9574335638011666 old_energy=-0.13097541611918806 distance=2.957433563381045 gb_cutoff=5.0 gb_epsilon=1.0 gb_sigma=1.0 energy=-0.019309525074763592 pbc="F F F"
X       10.00000000      10.00000000      10.00000000       0.27748204       0.74458245      -0.60424918      -0.05902223       0.00171065      -0.02606140       0.15552650      -0.04291327       0.00814481       0.02179783       1.00000000       1.50000000       2.00000000       0.04691870       0.08096762       0.05269697      -0.01930953
X       11.16194632      11.96303449      11.88222996       0.55217881      -0.41936728       0.17170236       0.69981994       0.00777668       0.00621250      -0.08022378      -0.00604044       0.01893593      -0.01982084       1.00000000       1.50000000       2.00000000      -0.04691870      -0.08096762      -0.05269697      -0.01930953
2
Properties=species:S:1:pos:R:3:quaternions:R:4:old_torques:R:3:torques:R:3:c_diameter[1]:R:1:c_diameter[2]:R:1:c_diameter[3]:R:1:forces:R:3:energies:R:1 separation_distance=2.349812505576174 old_energy=-0.7712898450176735 distance=2.3498125042657674 gb_cutoff=5.0 gb_epsilon=1.0 gb_sigma=1.0 energy=-0.05354780071709819 pbc="F F F"
X       10.00000000      10.00000000      10.00000000       0.10600183      -0.53084106       0.13739112       0.82951495       0.13704910      -0.44994590       0.59214263       0.06344751       0.00040349      -0.04424695       1.00000000       1.50000000       2.00000000       0.15142109       0.25197789       0.18772145      -0.05354780
X       11.17925515      11.54166384      11.32448054       0.83474602      -0.22292833       0.22749191      -0.44916530       0.02897701      -0.43027899       0.04505361      -0.10778396      -0.02122069       0.10795275       1.00000000       1.50000000       2.00000000      -0.15142109      -0.25197789      -0.18772145      -0.05354780
2
Properties=species:S:1:pos:R:3:quaternions:R:4:old_torques:R:3:torques:R:3:c_diameter[1]:R:1:c_diameter[2]:R:1:c_diameter[3]:R:1:forces:R:3:energies:R:1 separation_distance=2.9526101862829917 old_energy=-0.6240360655302228 distance=2.9526101897988895 gb_cutoff=5.0 gb_epsilon=1.0 gb_sigma=1.0 energy=-0.007692585007864944 pbc="F F F"
X       10.00000000      10.00000000      10.00000000       0.18500533       0.02616714       0.92055367       0.34302952      -0.03050694       0.00845232       0.00222072       0.00386752       0.00113532      -0.00864363       1.00000000       1.50000000       2.00000000       0.02289588       0.01846994       0.02221164      -0.00769259
X       11.55468483      11.74572781      11.80368967       0.34296614       0.53869643       0.76945113      -0.01119568      -0.01493247      -0.35753846      -0.07391369       0.00159391       0.00562965      -0.00261141       1.00000000       1.50000000       2.00000000      -0.02289588      -0.01846994      -0.02221164      -0.00769259
2
Properties=species:S:1:pos:R:3:quaternions:R:4:old_torques:R:3:torques:R:3:c_diameter[1]:R:1:c_diameter[2]:R:1:c_diameter[3]:R:1:forces:R:3:energies:R:1 separation_distance=3.172906856770517 old_energy=-0.5600462164912874 distance=3.172906854987513 gb_cutoff=5.0 gb_epsilon=1.0 gb_sigma=1.0 energy=-0.006602633907904522 pbc="F F F"
X       10.00000000      10.00000000      10.00000000       0.27745203       0.07754175      -0.78467526      -0.54890107      -0.13899421      -1.31133103       0.79262771      -0.00210774       0.00533185      -0.00441145       1.00000000       1.50000000       2.00000000       0.01788704       0.01981951       0.01577358      -0.00660263
X       11.82797782      11.72449217      11.93699813       0.23314687      -0.62837834      -0.65053387       0.35719585       1.28701214       2.26603502       0.71575991      -0.00908121       0.00048156       0.00979502       1.00000000       1.50000000       2.00000000      -0.01788704      -0.01981951      -0.01577358      -0.00660263
2
Properties=species:S:1:pos:R:3:quaternions:R:4:old_torques:R:3:torques:R:3:c_diameter[1]:R:1:c_diameter[2]:R:1:c_diameter[3]:R:1:forces:R:3:energies:R:1 separation_distance=3.026641633087646 old_energy=-0.436501014792958 distance=3.02664163527129 gb_cutoff=5.0 gb_epsilon=1.0 gb_sigma=1.0 energy=-0.004993589596209858 pbc="F F F"
X       10.00000000      10.00000000      10.00000000       0.15234456      -0.86143275      -0.00211706      -0.48447937      -0.00677360       0.04227206      -0.50222176       0.00563812      -0.00321641      -0.00159796       1.00000000       1.50000000       2.00000000       0.01241098       0.01121501       0.01442252      -0.00499359
X       11.74512267      11.45690501      11.99813269       0.77333887      -0.01193155      -0.15468321       0.61471760       0.55341839       1.02558747      -0.39064578      -0.00703495       0.00284611       0.00308791       1.00000000       1.50000000       2.00000000      -0.01241098      -0.01121501      -0.01442252      -0.00499359
2
Properties=species:S:1:pos:R:3:quaternions:R:4:old_torques:R:3:torques:R:3:c_diameter[1]:R:1:c_diameter[2]:R:1:c_diameter[3]:R:1:forces:R:3:energies:R:1 separation_distance=2.4238228206741574 old_energy=-0.6830622188254315 distance=2.4238228164415605 gb_cutoff=5.0 gb_epsilon=1.0 gb_sigma=1.0 energy=-0.047677215738785306 pbc="F F F"
X       10.00000000      10.00000000      10.00000000       0.36966417       0.25088897      -0.85801762      -0.25339474      -0.01254532      -0.13797624      -0.35627135      -0.06745584      -0.00349122       0.02775713       1.00000000       1.50000000       2.00000000       0.08208873       0.21890539       0.20328383      -0.04767722
X       11.15055095      11.36270470      11.64139741       0.79894195      -0.25950202       0.46717704      -0.27585517      -0.04306039       0.96018824       0.11462694      -0.01483908      -0.09565695       0.11224197       1.00000000       1.50000000       2.00000000      -0.08208873      -0.21890539      -0.20328383      -0.04767722
2
Properties=species:S:1:pos:R:3:quaternions:R:4:old_torques:R:3:torques:R:3:c_diameter[1]:R:1:c_diameter[2]:R:1:c_diameter[3]:R:1:forces:R:3:energies:R:1 separation_distance=2.457413151771946 old_energy=-0.8002408728110042 distance=2.4574131537581376 gb_cutoff=5.0 gb_epsilon=1.0 gb_sigma=1.0 energy=-0.017741227575855927 pbc="F F F"
X       10.00000000      10.00000000      10.00000000       0.34012334      -0.91858365      -0.12741592      -0.15583763       0.13654090       1.12827332      -0.21991503       0.00677463       0.00967159      -0.01793779       1.00000000       1.50000000       2.00000000       0.06077857       0.05745348       0.04913631      -0.01774123
X       11.27114432      11.84754917      11.00480525       0.38162310      -0.85571026      -0.17151332      -0.30447815      -0.01576880      -0.11318461      -0.18510138       0.02627757      -0.01106030      -0.02132194       1.00000000       1.50000000       2.00000000      -0.06077857      -0.05745348      -0.04913631      -0.01774123
2
Properties=species:S:1:pos:R:3:quaternions:R:4:old_torques:R:3:torques:R:3:c_diameter[1]:R:1:c_diameter[2]:R:1:c_diameter[3]:R:1:forces:R:3:energies:R:1 separation_distance=2.964807342055769 old_energy=-0.08645429059053251 distance=2.9648073422901944 gb_cutoff=5.0 gb_epsilon=1.0 gb_sigma=1.0 energy=-0.004532573122482835 pbc="F F F"
X       10.00000000      10.00000000      10.00000000       0.60688783       0.74307672       0.28191453       0.00695284      -0.00158565      -0.07647138      -0.02117425      -0.00186117       0.00418419      -0.00405699       1.00000000       1.50000000       2.00000000       0.01434606       0.01240394       0.00514570      -0.00453257
X       11.91196409      11.95422668      11.14694114       0.36217634       0.86337719       0.34009626       0.08799244      -0.00304267       0.00242079       0.00282610      -0.00230955       0.00243150      -0.00026256       1.00000000       1.50000000       2.00000000      -0.01434606      -0.01240394      -0.00514570      -0.00453257
2
Properties=species:S:1:pos:R:3:quaternions:R:4:old_torques:R:3:torques:R:3:c_diameter[1]:R:1:c_diameter[2]:R:1:c_diameter[3]:R:1:forces:R:3:energies:R:1 separation_distance=3.1026568410188333 old_energy=-0.26572516972765864 distance=3.102656845607881 gb_cutoff=5.0 gb_epsilon=1.0 gb_sigma=1.0 energy=-0.010854956120256042 pbc="F F F"
X       10.00000000      10.00000000      10.00000000       0.43073430      -0.31928522       0.42624398       0.72858835       0.00114590      -0.02278216      -0.25071988       0.01398672       0.00202768      -0.01870650       1.00000000       1.50000000       2.00000000       0.03680555       0.02711258       0.03194049      -0.01085496
X       11.54131925      11.89416490      11.91388448       0.17791426       0.96684331      -0.15172597      -0.10266332       0.25806390       0.07676940      -0.14639799      -0.00537650       0.01918339      -0.00922014       1.00000000       1.50000000       2.00000000      -0.03680555      -0.02711258      -0.03194049      -0.01085496
2
Properties=species:S:1:pos:R:3:quaternions:R:4:old_torques:R:3:torques:R:3:c_diameter[1]:R:1:c_diameter[2]:R:1:c_diameter[3]:R:1:forces:R:3:energies:R:1 separation_distance=2.851110365044353 old_energy=-0.7255750197098249 distance=2.8511103625591616 gb_cutoff=5.0 gb_epsilon=1.0 gb_sigma=1.0 energy=-0.008722076080251153 pbc="F F F"
X       10.00000000      10.00000000      10.00000000       0.63499841       0.27671580       0.67511905      -0.25381026      -0.06423221      -0.40947853       0.03627132       0.00390741      -0.00865059       0.00269909       1.00000000       1.50000000       2.00000000       0.02784003       0.01858090       0.02668940      -0.00872208
X       11.73994341      11.36582536      11.79887418       0.20089525      -0.13335733       0.00164526       0.97049174      -0.14787535       0.02901804       0.10297384      -0.00087905       0.01229325      -0.00839399       1.00000000       1.50000000       2.00000000      -0.02784003      -0.01858090      -0.02668940      -0.00872208
2
Properties=species:S:1:pos:R:3:quaternions:R:4:old_torques:R:3:torques:R:3:c_diameter[1]:R:1:c_diameter[2]:R:1:c_diameter[3]:R:1:forces:R:3:energies:R:1 separation_distance=2.785397397198484 old_energy=-0.5652204368504797 distance=2.7853973964644734 gb_cutoff=5.0 gb_epsilon=1.0 gb_sigma=1.0 energy=-0.018160822086517356 pbc="F F F"
X       10.00000000      10.00000000      10.00000000       0.79636395      -0.52379290       0.03393466      -0.30048943      -0.02629791       0.17692918       0.27462328       0.03351093       0.01676787      -0.04038600       1.00000000       1.50000000       2.00000000       0.06691957       0.03376224       0.06911931      -0.01816082
X       11.36829348      11.58768019      11.83452534       0.20817212       0.04444329       0.86993715       0.44485787      -0.11739838      -0.09571351      -0.56571822       0.01429075       0.01142227      -0.01966422       1.00000000       1.50000000       2.00000000      -0.06691957      -0.03376224      -0.06911931      -0.01816082
2
Properties=species:S:1:pos:R:3:quaternions:R:4:old_torques:R:3:torques:R:3:c_diameter[1]:R:1:c_diameter[2]:R:1:c_diameter[3]:R:1:forces:R:3:energies:R:1 separation_distance=2.671931874468614 old_energy=-0.292618381155451 distance=2.671931871951118 gb_cutoff=5.0 gb_epsilon=1.0 gb_sigma=1.0 energy=-0.012351623424336412 pbc="F F F"
X       10.00000000      10.00000000      10.00000000       0.41422823      -0.69594802      -0.24339957      -0.53369277       0.02668610      -0.25337721       0.21892643       0.02323155      -0.01502233      -0.01017404       1.00000000       1.50000000       2.00000000       0.03411686       0.02433689       0.04921822      -0.01235162
X       11.46730772      11.55016704      11.60723680       0.22571252      -0.52038906       0.00794948       0.82352043       0.04062779      -0.33715300       0.22367267       0.01394977      -0.00236207      -0.00700308       1.00000000       1.50000000       2.00000000      -0.03411686      -0.02433689      -0.04921822      -0.01235162
2
Properties=species:S:1:pos:R:3:quaternions:R:4:old_torques:R:3:torques:R:3:c_diameter[1]:R:1:c_diameter[2]:R:1:c_diameter[3]:R:1:forces:R:3:energies:R:1 separation_distance=2.9140641092145962 old_energy=-0.3892612803150954 distance=2.9140641103083276 gb_cutoff=5.0 gb_epsilon=1.0 gb_sigma=1.0 energy=-0.006502274096438501 pbc="F F F"
X       10.00000000      10.00000000      10.00000000       0.21147944       0.92577062       0.31198157       0.02987835      -0.24054177      -4.54501039       0.80023053      -0.00776524       0.00685540      -0.00621584       1.00000000       1.50000000       2.00000000       0.01702371       0.02280766       0.01038814      -0.00650227
X       11.70535753      11.94919698      11.33572320       0.54036964       0.41868502      -0.47190583      -0.55678397       4.85870003      -3.85001873      -1.68867601      -0.00245095      -0.00183194       0.01192850       1.00000000       1.50000000       2.00000000      -0.01702371      -0.02280766      -0.01038814      -0.00650227
2
Properties=species:S:1:pos:R:3:quaternions:R:4:old_torques:R:3:torques:R:3:c_diameter[1]:R:1:c_diameter[2]:R:1:c_diameter[3]:R:1:forces:R:3:energies:R:1 separation_distance=3.0137113835002287 old_energy=-0.48552529141210027 distance=3.013711382774301 gb_cutoff=5.0 gb_epsilon=1.0 gb_sigma=1.0 energy=-0.007641113786879155 pbc="F F F"
X       10.00000000      10.00000000      10.00000000       0.01095745      -0.01056981      -0.86265161       0.50556940       0.30947223      -1.36020791       0.28165955       0.00393837       0.00978013      -0.01321820       1.00000000       1.50000000       2.00000000       0.02535448       0.01756218       0.01981409      -0.00764111
X       11.88890417      11.53796188      11.77459026       0.46372601       0.62218770       0.57489007       0.25950347      -0.10697355       0.22593463       0.57524749      -0.00463073      -0.00221323       0.00739725       1.00000000       1.50000000       2.00000000      -0.02535448      -0.01756218      -0.01981409      -0.00764111
2
Properties=species:S:1:pos:R:3:quaternions:R:4:old_torques:R:3:torques:R:3:c_diameter[1]:R:1:c_diameter[2]:R:1:c_diameter[3]:R:1:forces:R:3:energies:R:1 separation_distance=2.835181718381794 old_energy=-0.18392799158947867 distance=2.835181717856061 gb_cutoff=5.0 gb_epsilon=1.0 gb_sigma=1.0 energy=-0.01747138445863734 pbc="F F F"
X       10.00000000      10.00000000      10.00000000       0.25573965       0.43274934      -0.85643146      -0.11768767       0.03250982      -0.17589978       0.11723272      -0.04027861       0.01876989       0.01859125       1.00000000       1.50000000       2.00000000       0.05608305       0.06507603       0.04579943      -0.01747138
X       11.97882526      11.35698284      11.51033226       0.51314281      -0.29216029      -0.53612383       0.60323964      -0.07037925      -0.21856278      -0.19563701       0.00414122      -0.02469492       0.03407910       1.00000000       1.50000000       2.00000000      -0.05608305      -0.06507603      -0.04579943      -0.01747138
2
Properties=species:S:1:pos:R:3:quaternions:R:4:old_torques:R:3:torques:R:3:c_diameter[1]:R:1:c_diameter[2]:R:1:c_diameter[3]:R:1:forces:R:3:energies:R:1 separation_distance=2.872638633348651 old_energy=-0.5589224309957389 distance=2.8726386373717174 gb_cutoff=5.0 gb_epsilon=1.0 gb_sigma=1.0 energy=-0.01553755723556761 pbc="F F F"
X       10.00000000      10.00000000      10.00000000       0.45981997       0.04568830       0.06631123       0.88435343      -0.00086654       0.64472336      -0.03685108      -0.02499226       0.00469306       0.01457522       1.00000000       1.50000000       2.00000000       0.03833392       0.06459972       0.03789773      -0.01553756
X       11.74811186      11.94575321      11.18751931       0.40832466       0.64940661       0.02705769      -0.64094455       0.17244314       0.17198606      -0.48182917       0.02201848      -0.02542026       0.02376396       1.00000000       1.50000000       2.00000000      -0.03833392      -0.06459972      -0.03789773      -0.01553756
2
Properties=species:S:1:pos:R:3:quaternions:R:4:old_torques:R:3:torques:R:3:c_diameter[1]:R:1:c_diameter[2]:R:1:c_diameter[3]:R:1:forces:R:3:energies:R:1 separation_distance=3.1304705300086098 old_energy=-0.07738268896675644 distance=3.1304705300004514 gb_cutoff=5.0 gb_epsilon=1.0 gb_sigma=1.0 energy=-0.00588392424043749 pbc="F F F"
X       10.00000000      10.00000000      10.00000000       0.80098666       0.06557738       0.53552635      -0.25948313      -0.00940308       0.07628870       0.05040737      -0.00160080      -0.00903693       0.00628769       1.00000000       1.50000000       2.00000000       0.01138891       0.01479617       0.01989386      -0.00588392
X       11.73166127      11.90819770      11.77763228       0.47758041      -0.61940629      -0.30339598      -0.54424597       0.01503923      -0.08699002       0.06015961       0.01326007      -0.00516721      -0.00239803       1.00000000       1.50000000       2.00000000      -0.01138891      -0.01479617      -0.01989386      -0.00588392
2
Properties=species:S:1:pos:R:3:quaternions:R:4:old_torques:R:3:torques:R:3:c_diameter[1]:R:1:c_diameter[2]:R:1:c_diameter[3]:R:1:forces:R:3:energies:R:1 separation_distance=3.348403989785598 old_energy=-0.38240357792299523 distance=3.3484039898656603 gb_cutoff=5.0 gb_epsilon=1.0 gb_sigma=1.0 energy=-0.0036652102087110835 pbc="F F F"
X       10.00000000      10.00000000      10.00000000       0.03120117      -0.88394515      -0.13982465       0.44510282       0.74146630       0.13019827      -0.02018573      -0.00179110      -0.00270866       0.00300703       1.00000000       1.50000000       2.00000000       0.00772407       0.00908024       0.01009782      -0.00366521
X       11.89852154      11.93421986      11.96627027       0.32818492      -0.79217094      -0.36734994      -0.36029694       0.01092961       0.12950811       0.11820399       0.00346829      -0.00127466      -0.00070804       1.00000000       1.50000000       2.00000000      -0.00772407      -0.00908024      -0.01009782      -0.00366521
2
Properties=species:S:1:pos:R:3:quaternions:R:4:old_torques:R:3:torques:R:3:c_diameter[1]:R:1:c_diameter[2]:R:1:c_diameter[3]:R:1:forces:R:3:energies:R:1 separation_distance=3.2380894635559883 old_energy=-0.20463579459896572 distance=3.2380894671798597 gb_cutoff=5.0 gb_epsilon=1.0 gb_sigma=1.0 energy=-0.006423664998824705 pbc="F F F"
X       10.00000000      10.00000000      10.00000000       0.64054426      -0.28381900       0.14299613       0.69907219       0.01875973       0.01836894      -0.26091217       0.00366371       0.00633315      -0.00421658       1.00000000       1.50000000       2.00000000       0.02014329       0.01132258       0.01895374      -0.00642366
X       11.98770643      11.71552228      11.89505405       0.37232175       0.17654466       0.79608040       0.44324316       0.08431671       0.00428176       0.01214201       0.00739494      -0.00583500      -0.00783371       1.00000000       1.50000000       2.00000000      -0.02014329      -0.01132258      -0.01895374      -0.00642366
2
Properties=species:S:1:pos:R:3:quaternions:R:4:old_torques:R:3:torques:R:3:c_diameter[1]:R:1:c_diameter[2]:R:1:c_diameter[3]:R:1:forces:R:3:energies:R:1 separation_distance=3.357559916282727 old_energy=-0.22105389934556227 distance=3.357559916252563 gb_cutoff=5.0 gb_epsilon=1.0 gb_sigma=1.0 energy=-0.0021838828120359192 pbc="F F F"
X       10.00000000      10.00000000      10.00000000       0.61228269      -0.21941444       0.75827679       0.04453674       4.05025409      -3.17378779      -0.91240685       0.00160667      -0.00291102       0.00093222       1.00000000       1.50000000       2.00000000       0.00453346       0.00449550       0.00556099      -0.00218388
X       11.89143299      11.93196155      11.99078236       0.54673851      -0.81439501      -0.18918310      -0.04524954       2.80555829      -6.68144632      -2.58753496       0.00018738       0.00141792      -0.00118775       1.00000000       1.50000000       2.00000000      -0.00453346      -0.00449550      -0.00556099      -0.00218388
2
Properties=species:S:1:pos:R:3:quaternions:R:4:old_torques:R:3:torques:R:3:c_diameter[1]:R:1:c_diameter[2]:R:1:c_diameter[3]:R:1:forces:R:3:energies:R:1 separation_distance=2.610614268148231 old_energy=-0.6988534080194371 distance=2.6106142668319126 gb_cutoff=5.0 gb_epsilon=1.0 gb_sigma=1.0 energy=-0.012966763401607679 pbc="F F F"
X       10.00000000      10.00000000      10.00000000       0.05540246       0.42683896      -0.68295204       0.59018266      -0.02868225      -0.05519067      -0.12045382      -0.00728022       0.01239574      -0.00066140       1.00000000       1.50000000       2.00000000       0.05468778       0.03025895       0.02587549      -0.01296676
X       11.91713112      11.38301108      11.10778855       0.11541765      -0.02295525       0.88484798       0.45077252       0.06073674      -0.05271668       0.10592047       0.00954579      -0.00141995      -0.01696203       1.00000000       1.50000000       2.00000000      -0.05468778      -0.03025895      -0.02587549      -0.01296676
2
Properties=species:S:1:pos:R:3:quaternions:R:4:old_torques:R:3:torques:R:3:c_diameter[1]:R:1:c_diameter[2]:R:1:c_diameter[3]:R:1:forces:R:3:energies:R:1 separation_distance=3.0293626498923936 old_energy=-0.08918836058418357 distance=3.0293626491758423 gb_cutoff=5.0 gb_epsilon=1.0 gb_sigma=1.0 energy=-0.004982249525092475 pbc="F F F"
X       10.00000000      10.00000000      10.00000000       0.22424454       0.55829528      -0.78722165      -0.13528803       0.02017757      -0.06806393       0.08080460      -0.00865560       0.00506799       0.00632261       1.00000000       1.50000000       2.00000000       0.01433684       0.01489601       0.00827803      -0.00498225
X       11.95311815      11.65495705      11.61971748       0.40064203       0.81457475       0.35607189       0.22173574      -0.00236435      -0.10640930      -0.02008810      -0.00177195       0.00198567      -0.00095580       1.00000000       1.50000000       2.00000000      -0.01433684      -0.01489601      -0.00827803      -0.00498225
2
Properties=species:S:1:pos:R:3:quaternions:R:4:old_torques:R:3:torques:R:3:c_diameter[1]:R:1:c_diameter[2]:R:1:c_diameter[3]:R:1:forces:R:3:energies:R:1 separation_distance=2.875007729211833 old_energy=-0.5527652507517227 distance=2.8750077322418752 gb_cutoff=5.0 gb_epsilon=1.0 gb_sigma=1.0 energy=-0.014797592549611495 pbc="F F F"
X       10.00000000      10.00000000      10.00000000       0.82118990       0.13065846      -0.38193007       0.40336701       0.47419021       1.18992346      -0.56307038       0.01595422      -0.01716110       0.00217316       1.00000000       1.50000000       2.00000000       0.04770727       0.05247717       0.03562964      -0.01479759
X       11.80624746      11.98988468      11.02151776       0.48150056       0.47384994      -0.71895114       0.16350139       0.00606025       0.68796734      -0.06486303       0.00133830       0.00153897      -0.00231837       1.00000000       1.50000000       2.00000000      -0.04770727      -0.05247717      -0.03562964      -0.01479759
2
Properties=species:S:1:pos:R:3:quaternions:R:4:old_torques:R:3:torques:R:3:c_diameter[1]:R:1:c_diameter[2]:R:1:c_diameter[3]:R:1:forces:R:3:energies:R:1 separation_distance=2.958797934587432 old_energy=-0.519612855186731 distance=2.9587979318697335 gb_cutoff=5.0 gb_epsilon=1.0 gb_sigma=1.0 energy=-0.011460682465066197 pbc="F F F"
X       10.00000000      10.00000000      10.00000000       0.96613131      -0.25504756      -0.02849566      -0.02700075       0.13364678      -0.10933764       0.45808989      -0.00105115       0.02383810      -0.01637015       1.00000000       1.50000000       2.00000000       0.04377689       0.02620342       0.03058378      -0.01146068
X       11.81742613      11.78703561      11.50264806       0.42170861      -0.58816988      -0.35091407      -0.59420313       0.09382790      -1.09993702       0.07600138       0.01633092      -0.01364059      -0.01423793       1.00000000       1.50000000       2.00000000      -0.04377689      -0.02620342      -0.03058378      -0.01146068
2
Properties=species:S:1:pos:R:3:quaternions:R:4:old_torques:R:3:torques:R:3:c_diameter[1]:R:1:c_diameter[2]:R:1:c_diameter[3]:R:1:forces:R:3:energies:R:1 separation_distance=3.008759950124493 old_energy=-0.30365889685727154 distance=3.008759943897084 gb_cutoff=5.0 gb_epsilon=1.0 gb_sigma=1.0 energy=-0.006043516430114601 pbc="F F F"
X       10.00000000      10.00000000      10.00000000       0.34170204       0.93534314      -0.06928822       0.05976671       0.12497892       0.25168948      -0.42407201       0.00055450       0.00866885      -0.00977410       1.00000000       1.50000000       2.00000000       0.01874701       0.01421663       0.01491797      -0.00604352
X       11.90000369      11.53031448      11.76089749       0.36761626       0.43391013      -0.39932846      -0.71910852      -0.18535513       0.29544053       0.42140162      -0.00275934      -0.00400147       0.00809691       1.00000000       1.50000000       2.00000000      -0.01874701      -0.01421663      -0.01491797      -0.00604352
2
Properties=species:S:1:pos:R:3:quaternions:R:4:old_torques:R:3:torques:R:3:c_diameter[1]:R:1:c_diameter[2]:R:1:c_diameter[3]:R:1:forces:R:3:energies:R:1 separation_distance=2.852662320918386 old_energy=-0.23390334704627175 distance=2.852662317730887 gb_cutoff=5.0 gb_epsilon=1.0 gb_sigma=1.0 energy=-0.008544294202620909 pbc="F F F"
X       10.00000000      10.00000000      10.00000000       0.80194909       0.01601016       0.59048794       0.08913651      -0.07796017       0.16224300       0.35398213       0.00397035      -0.01159798       0.00905663       1.00000000       1.50000000       2.00000000       0.01678513       0.02775595       0.02578576      -0.00854429
X       11.45973065      11.83691191      11.62253609       0.07407988       0.55502563      -0.58437204      -0.58733980       0.01530542      -0.09193046       0.00427102      -0.00163922       0.00119221       0.00062676       1.00000000       1.50000000       2.00000000      -0.01678513      -0.02775595      -0.02578576      -0.00854429
2
Properties=species:S:1:pos:R:3:quaternions:R:4:old_torques:R:3:torques:R:3:c_diameter[1]:R:1:c_diameter[2]:R:1:c_diameter[3]:R:1:forces:R:3:energies:R:1 separation_distance=2.9999333009143103 old_energy=-0.13684219758423774 distance=2.999933304598082 gb_cutoff=5.0 gb_epsilon=1.0 gb_sigma=1.0 energy=-0.015094115606189357 pbc="F F F"
X       10.00000000      10.00000000      10.00000000       0.23447375      -0.17213699      -0.71661364       0.63392098       0.00916795      -0.35170577       0.02634534       0.01581787      -0.01054330      -0.00818453       1.00000000       1.50000000       2.00000000       0.04146629       0.04578639       0.04984935      -0.01509412
X       11.71839580      11.88796678      11.57553075       0.39066082      -0.20249052      -0.45240809       0.77569880       0.00452227       0.03020579      -0.06150926       0.00615817      -0.00978620       0.00857671       1.00000000       1.50000000       2.00000000      -0.04146629      -0.04578639      -0.04984935      -0.01509412
2
Properties=species:S:1:pos:R:3:quaternions:R:4:old_torques:R:3:torques:R:3:c_diameter[1]:R:1:c_diameter[2]:R:1:c_diameter[3]:R:1:forces:R:3:energies:R:1 separation_distance=3.067135675813863 old_energy=-0.10801206116780021 distance=3.06713567857484 gb_cutoff=5.0 gb_epsilon=1.0 gb_sigma=1.0 energy=-0.005576021975434075 pbc="F F F"
X       10.00000000      10.00000000      10.00000000       0.51509005       0.18040983      -0.72411803       0.42164868      -0.00389649      -0.03992848      -0.03150096       0.00848016      -0.01005784       0.00278163       1.00000000       1.50000000       2.00000000       0.01093136       0.01306277       0.01886782      -0.00557602
X       11.75665043      11.64928180      11.89772761       0.19570782      -0.62054112       0.59978299       0.46571186      -0.00662839      -0.26839453      -0.01852889      -0.00215138      -0.00234159       0.00213620       1.00000000       1.50000000       2.00000000      -0.01093136      -0.01306277      -0.01886782      -0.00557602
2
Properties=species:S:1:pos:R:3:quaternions:R:4:old_torques:R:3:torques:R:3:c_diameter[1]:R:1:c_diameter[2]:R:1:c_diameter[3]:R:1:forces:R:3:energies:R:1 separation_distance=2.7818301794178386 old_energy=-0.5505565070294193 distance=2.7818301794466556 gb_cutoff=5.0 gb_epsilon=1.0 gb_sigma=1.0 energy=-0.00853987349149911 pbc="F F F"
X       10.00000000      10.00000000      10.00000000       0.58315037      -0.72396132      -0.16065098      -0.33167292      -0.07553913       0.52722908       0.21072578       0.00920401      -0.00116266      -0.00778972       1.00000000       1.50000000       2.00000000       0.02945527       0.01184691       0.02684047      -0.00853987
X       11.98045782      11.29375949      11.46374600       0.49540834      -0.40917336       0.51932635       0.56342514      -0.56326891      -1.09729689      -0.58652974       0.00818022      -0.00887872      -0.00685600       1.00000000       1.50000000       2.00000000      -0.02945527      -0.01184691      -0.02684047      -0.00853987
2
Properties=species:S:1:pos:R:3:quaternions:R:4:old_torques:R:3:torques:R:3:c_diameter[1]:R:1:c_diameter[2]:R:1:c_diameter[3]:R:1:forces:R:3:energies:R:1 separation_distance=2.9225672680897063 old_energy=-0.5692118377982696 distance=2.9225672666246414 gb_cutoff=5.0 gb_epsilon=1.0 gb_sigma=1.0 energy=-0.022316169872326635 pbc="F F F"
X       10.00000000      10.00000000      10.00000000       0.35868288       0.28095768       0.18994716       0.86967203      -0.84239204     -10.17207320       0.72509180      -0.02651093       0.00922583       0.02600120       1.00000000       1.50000000       2.00000000       0.08719721       0.08065779       0.04301638      -0.02231617
X       11.84216448      11.80664161      11.37254346       0.89982914      -0.33851629      -0.00596658      -0.27509750       0.03322375      -1.25001181      -0.41198111      -0.00648020       0.03121288      -0.03495040       1.00000000       1.50000000       2.00000000      -0.08719721      -0.08065779      -0.04301638      -0.02231617
2
Properties=species:S:1:pos:R:3:quaternions:R:4:old_torques:R:3:torques:R:3:c_diameter[1]:R:1:c_diameter[2]:R:1:c_diameter[3]:R:1:forces:R:3:energies:R:1 separation_distance=2.845548357276597 old_energy=-0.3142029147211554 distance=2.845548359169526 gb_cutoff=5.0 gb_epsilon=1.0 gb_sigma=1.0 energy=-0.02210044799435066 pbc="F F F"
X       10.00000000      10.00000000      10.00000000       0.40250097       0.51696374       0.70579646       0.26943053      -0.10681271       0.16850403       0.44213639      -0.01204859      -0.00252789       0.01133500       1.00000000       1.50000000       2.00000000       0.06238764       0.07548013       0.07838983      -0.02210045
X       11.51578057      11.54592675      11.84652788       0.31750337       0.06634302      -0.91096347       0.25482499      -0.06949576      -0.67158097      -0.12274959      -0.00614263      -0.00109339       0.00662959       1.00000000       1.50000000       2.00000000      -0.06238764      -0.07548013      -0.07838983      -0.02210045
2
Properties=species:S:1:pos:R:3:quaternions:R:4:old_torques:R:3:torques:R:3:c_diameter[1]:R:1:c_diameter[2]:R:1:c_diameter[3]:R:1:forces:R:3:energies:R:1 separation_distance=2.651146532261951 old_energy=-0.6853478139912474 distance=2.651146535028702 gb_cutoff=5.0 gb_epsilon=1.0 gb_sigma=1.0 energy=-0.04365254605497976 pbc="F F F"
X       10.00000000      10.00000000      10.00000000       0.50356527       0.78048318       0.34811308      -0.12682791      -0.03143156       0.12777044       0.53432272       0.02751858       0.04572003      -0.05803097       1.00000000       1.50000000       2.00000000       0.11869730       0.15129359       0.19762233      -0.04365255
X       11.18352555      11.75205533      11.59942094       0.47865420       0.73392831       0.09314623      -0.47282468      -0.06843142      -0.13541142       0.76379359       0.07674455      -0.08976416       0.02912656       1.00000000       1.50000000       2.00000000      -0.11869730      -0.15129359      -0.19762233      -0.04365255
2
Properties=species:S:1:pos:R:3:quaternions:R:4:old_torques:R:3:torques:R:3:c_diameter[1]:R:1:c_diameter[2]:R:1:c_diameter[3]:R:1:forces:R:3:energies:R:1 separation_distance=2.8692890387856065 old_energy=-0.3649784218023199 distance=2.8692890391209196 gb_cutoff=5.0 gb_epsilon=1.0 gb_sigma=1.0 energy=-0.007772901930462164 pbc="F F F"
X       10.00000000      10.00000000      10.00000000       0.29205650       0.52300644      -0.08498632      -0.79620637       0.05921794      -0.07682746       0.54474792       0.00628577      -0.00932761       0.00442541       1.00000000       1.50000000       2.00000000       0.02068882       0.02441729       0.01926372      -0.00777290
X       11.83162306      11.77476034      11.31461108       0.84498745       0.32368689       0.42536670       0.01691698       0.01306805      -0.15465958       0.20000857      -0.00419653       0.00124149       0.00358015       1.00000000       1.50000000       2.00000000      -0.02068882      -0.02441729      -0.01926372      -0.00777290
2
Properties=species:S:1:pos:R:3:quaternions:R:4:old_torques:R:3:torques:R:3:c_diameter[1]:R:1:c_diameter[2]:R:1:c_diameter[3]:R:1:forces:R:3:energies:R:1 separation_distance=3.031485080968295 old_energy=-0.6028620713944307 distance=3.03148508028321 gb_cutoff=5.0 gb_epsilon=1.0 gb_sigma=1.0 energy=-0.006850088194323054 pbc="F F F"
X       10.00000000      10.00000000      10.00000000       0.56570319      -0.27763386      -0.59801367       0.49525649       0.03447569       0.47475903       0.20984815      -0.00282293      -0.00856079       0.00614733       1.00000000       1.50000000       2.00000000       0.01249218       0.01795485       0.02396497      -0.00685009
X       11.42086406      11.84086395      11.94480514       0.51957652      -0.30840215      -0.57724072      -0.54929182      -0.47837214       0.11415973      -0.08101786       0.01202049      -0.00119532      -0.00363233       1.00000000       1.50000000       2.00000000      -0.01249218      -0.01795485      -0.02396497      -0.00685009
2
Properties=species:S:1:pos:R:3:quaternions:R:4:old_torques:R:3:torques:R:3:c_diameter[1]:R:1:c_diameter[2]:R:1:c_diameter[3]:R:1:forces:R:3:energies:R:1 separation_distance=2.940646930406048 old_energy=-0.33181262956334395 distance=2.940646927340869 gb_cutoff=5.0 gb_epsilon=1.0 gb_sigma=1.0 energy=-0.016814922894246635 pbc="F F F"
X       10.00000000      10.00000000      10.00000000       0.66211887       0.38024927       0.64418225       0.04514781      -0.17116315       0.77518453       0.26053838       0.00334121      -0.00998759       0.00377692       1.00000000       1.50000000       2.00000000       0.05019418       0.04644116       0.06094657      -0.01681492
X       11.75876427      11.60830380      11.72264665       0.27435561      -0.15493936      -0.81451186       0.48712752      -0.01896298      -1.02160009      -0.01235322       0.01467769      -0.01073623      -0.00282536       1.00000000       1.50000000       2.00000000      -0.05019418      -0.04644116      -0.06094657      -0.01681492
2
Properties=species:S:1:pos:R:3:quaternions:R:4:old_torques:R:3:torques:R:3:c_diameter[1]:R:1:c_diameter[2]:R:1:c_diameter[3]:R:1:forces:R:3:energies:R:1 separation_distance=2.5963463842718864 old_energy=-0.7328500675840496 distance=2.5963463826468973 gb_cutoff=5.0 gb_epsilon=1.0 gb_sigma=1.0 energy=-0.021868266414293753 pbc="F F F"
X       10.00000000      10.00000000      10.00000000       0.26228478      -0.74199324      -0.55813919      -0.26293225      -0.01878908      -0.00497313      -0.04284644      -0.00383423      -0.01266975       0.01449024       1.00000000       1.50000000       2.00000000       0.07084861       0.07093186       0.07340700      -0.02186827
X       11.30654895      11.72264589      11.43751018       0.80243109      -0.56882931       0.01839827      -0.17944100      -0.10746546      -0.03357104      -0.02546531       0.02832323       0.01860552      -0.04386137       1.00000000       1.50000000       2.00000000      -0.07084861      -0.07093186      -0.07340700      -0.02186827
2
Properties=species:S:1:pos:R:3:quaternions:R:4:old_torques:R:3:torques:R:3:c_diameter[1]:R:1:c_diameter[2]:R:1:c_diameter[3]:R:1:forces:R:3:energies:R:1 separation_distance=2.8934677953457646 old_energy=-0.2625083400881708 distance=2.8934677974352807 gb_cutoff=5.0 gb_epsilon=1.0 gb_sigma=1.0 energy=-0.00942703899502547 pbc="F F F"
X       10.00000000      10.00000000      10.00000000       0.09435864       0.32322709      -0.07141215      -0.93889350      -0.02648774       0.01930931       0.37264032       0.00249657      -0.00010425      -0.00372302       1.00000000       1.50000000       2.00000000       0.03123335       0.02267597       0.02711190      -0.00942704
X       11.53560142      11.65240174      11.81208517       0.17075142       0.17421035      -0.87897164       0.40976038       0.10854024      -0.46063515       0.24608817       0.00121238       0.01506867      -0.01306576       1.00000000       1.50000000       2.00000000      -0.03123335      -0.02267597      -0.02711190      -0.00942704
2
Properties=species:S:1:pos:R:3:quaternions:R:4:old_torques:R:3:torques:R:3:c_diameter[1]:R:1:c_diameter[2]:R:1:c_diameter[3]:R:1:forces:R:3:energies:R:1 separation_distance=2.945713152885051 old_energy=-0.6016434995688097 distance=2.9457131536632164 gb_cutoff=5.0 gb_epsilon=1.0 gb_sigma=1.0 energy=-0.012729987768089968 pbc="F F F"
X       10.00000000      10.00000000      10.00000000       0.39245191      -0.82950184       0.27711540      -0.28480739       0.21901964       0.78255467      -0.26539418       0.00548267      -0.00918665       0.00145949       1.00000000       1.50000000       2.00000000       0.02923221       0.04505800       0.03906580      -0.01272999
X       11.61180004      11.85501700      11.62426554       0.76028847       0.18323940       0.55410051       0.28523218      -0.10494117       0.19319400       0.52423718      -0.00620109      -0.00629874       0.01693874       1.00000000       1.50000000       2.00000000      -0.02923221      -0.04505800      -0.03906580      -0.01272999
2
Properties=species:S:1:pos:R:3:quaternions:R:4:old_torques:R:3:torques:R:3:c_diameter[1]:R:1:c_diameter[2]:R:1:c_diameter[3]:R:1:forces:R:3:energies:R:1 separation_distance=2.565107640167629 old_energy=-0.7059099132012201 distance=2.5651076388036826 gb_cutoff=5.0 gb_epsilon=1.0 gb_sigma=1.0 energy=-0.024251463245017497 pbc="F F F"
X       10.00000000      10.00000000      10.00000000       0.23429380       0.43355593      -0.58972750      -0.63981024      -0.20884551       0.91704404       0.47633333      -0.01743393      -0.00311953       0.02501426       1.00000000       1.50000000       2.00000000       0.08779157       0.08592151       0.06574112      -0.02425146
X       11.48983284      11.57974703      11.36549428       0.25588640       0.32025665      -0.76239407       0.50071260       0.01949733      -0.10161493       0.66588121       0.00396293       0.02505514      -0.03569403       1.00000000       1.50000000       2.00000000      -0.08779157      -0.08592151      -0.06574112      -0.02425146
2
Properties=species:S:1:pos:R:3:quaternions:R:4:old_torques:R:3:torques:R:3:c_diameter[1]:R:1:c_diameter[2]:R:1:c_diameter[3]:R:1:forces:R:3:energies:R:1 separation_distance=2.7587629302978462 old_energy=-0.6992313080364102 distance=2.758762932855537 gb_cutoff=5.0 gb_epsilon=1.0 gb_sigma=1.0 energy=-0.021670535753364552 pbc="F F F"
X       10.00000000      10.00000000      10.00000000       0.05042797       0.94185773       0.32695203      -0.05885076       0.13230907      -0.46077016       0.02710830      -0.04105166       0.04186331      -0.00575560       1.00000000       1.50000000       2.00000000       0.07838489       0.08370463       0.05409439      -0.02167054
X       11.24178627      11.58655741      11.88456238       0.19215854       0.59465739      -0.72539919       0.28853717       0.06116294      -0.01198983      -0.09477261      -0.03087108       0.03868424      -0.01466327       1.00000000       1.50000000       2.00000000      -0.07838489      -0.08370463      -0.05409439      -0.02167054
2
Properties=species:S:1:pos:R:3:quaternions:R:4:old_torques:R:3:torques:R:3:c_diameter[1]:R:1:c_diameter[2]:R:1:c_diameter[3]:R:1:forces:R:3:energies:R:1 separation_distance=2.580496487841417 old_energy=-0.7732951376790925 distance=2.5804964885700676 gb_cutoff=5.0 gb_epsilon=1.0 gb_sigma=1.0 energy=-0.057158439610571855 pbc="F F F"
X       10.00000000      10.00000000      10.00000000       0.56833565       0.53184737      -0.54425445      -0.31292180       0.68563371      -2.70271360      -1.12304217      -0.06077429      -0.06244200       0.12528014       1.00000000       1.50000000       2.00000000       0.12056844       0.29501654       0.22437079      -0.05715844
X       11.46932440      11.38016528      11.61095988       0.84879845      -0.26680664       0.27013957      -0.36794023      -0.07521148       1.10371534      -0.24329865      -0.10481674      -0.07300056       0.14179049       1.00000000       1.50000000       2.00000000      -0.12056844      -0.29501654      -0.22437079      -0.05715844
2
Properties=species:S:1:pos:R:3:quaternions:R:4:old_torques:R:3:torques:R:3:c_diameter[1]:R:1:c_diameter[2]:R:1:c_diameter[3]:R:1:forces:R:3:energies:R:1 separation_distance=3.099542704792809 old_energy=-0.5580465466676717 distance=3.099542705622576 gb_cutoff=5.0 gb_epsilon=1.0 gb_sigma=1.0 energy=-0.005804859263031181 pbc="F F F"
X       10.00000000      10.00000000      10.00000000       0.51196012       0.54072416      -0.61341482       0.26312825       0.04334643      -0.65265525      -0.34773268       0.01090593      -0.00454339      -0.00775898       1.00000000       1.50000000       2.00000000       0.01686864       0.00916925       0.01871959      -0.00580486
X       11.75868409      11.67826559      11.92291962       0.91746084      -0.17463829      -0.33707167      -0.11895279      -0.42853723       0.09199527      -0.11535495       0.00287878       0.00405859      -0.00442526       1.00000000       1.50000000       2.00000000      -0.01686864      -0.00916925      -0.01871959      -0.00580486
2
Properties=species:S:1:pos:R:3:quaternions:R:4:old_torques:R:3:torques:R:3:c_diameter[1]:R:1:c_diameter[2]:R:1:c_diameter[3]:R:1:forces:R:3:energies:R:1 separation_distance=2.7975197959722133 old_energy=-0.6908715458369851 distance=2.797519798186505 gb_cutoff=5.0 gb_epsilon=1.0 gb_sigma=1.0 energy=-0.00796625034005409 pbc="F F F"
X       10.00000000      10.00000000      10.00000000       0.61244839       0.04627233       0.72757916      -0.30560497      -0.13378261      -8.29037824       0.25182411       0.00039670      -0.00652092       0.00270045       1.00000000       1.50000000       2.00000000       0.02085616       0.01488490       0.02867599      -0.00796625
X       11.85750293      11.02576398      11.82307656       0.49742093       0.03794878      -0.55043708       0.66944105       0.20357193      -1.35717523      -1.18383802       0.00188179      -0.00872244       0.00355479       1.00000000       1.50000000       2.00000000      -0.02085616      -0.01488490      -0.02867599      -0.00796625
2
Properties=species:S:1:pos:R:3:quaternions:R:4:old_torques:R:3:torques:R:3:c_diameter[1]:R:1:c_diameter[2]:R:1:c_diameter[3]:R:1:forces:R:3:energies:R:1 separation_distance=2.4886953448690154 old_energy=-0.739892741711667 distance=2.4886953410371393 gb_cutoff=5.0 gb_epsilon=1.0 gb_sigma=1.0 energy=-0.02362152151199673 pbc="F F F"
X       10.00000000      10.00000000      10.00000000       0.81159936       0.22052280       0.41535420      -0.34663677      -0.05727678      -0.19202058      -0.46325517       0.00405720      -0.02280524       0.02003033       1.00000000       1.50000000       2.00000000       0.05207668       0.09291575       0.08521173      -0.02362152
X       11.16227871      11.71704512      11.37639702       0.20933413      -0.41329393      -0.26326744       0.84620187       0.26911122      -1.07369319       0.55379148       0.01436622      -0.00455635      -0.00145435       1.00000000       1.50000000       2.00000000      -0.05207668      -0.09291575      -0.08521173      -0.02362152
2
Properties=species:S:1:pos:R:3:quaternions:R:4:old_torques:R:3:torques:R:3:c_diameter[1]:R:1:c_diameter[2]:R:1:c_diameter[3]:R:1:forces:R:3:energies:R:1 separation_distance=2.9955794611158093 old_energy=-0.16735803998597343 distance=2.9955794551488455 gb_cutoff=5.0 gb_epsilon=1.0 gb_sigma=1.0 energy=-0.005595993413772636 pbc="F F F"
X       10.00000000      10.00000000      10.00000000       0.69786959      -0.63296009      -0.31129690      -0.12423289      -0.02751341       0.10087705       0.17276155       0.00366019      -0.00015740      -0.00649471       1.00000000       1.50000000       2.00000000       0.01752918       0.01431446       0.01170468      -0.00559599
X       11.82888615      11.92963052      11.38028902       0.91496380       0.14445134      -0.04087430      -0.37457223      -0.02113979      -0.35245253      -0.06202945      -0.00083257       0.00294620      -0.00115061       1.00000000       1.50000000       2.00000000      -0.01752918      -0.01431446      -0.01170468      -0.00559599
2
Properties=species:S:1:pos:R:3:quaternions:R:4:old_torques:R:3:torques:R:3:c_diameter[1]:R:1:c_diameter[2]:R:1:c_diameter[3]:R:1:forces:R:3:energies:R:1 separation_distance=2.6061096533613286 old_energy=-0.45186476369813483 distance=2.606109653804795 gb_cutoff=5.0 gb_epsilon=1.0 gb_sigma=1.0 energy=-0.01139733018309196 pbc="F F F"
X       10.00000000      10.00000000      10.00000000       0.03476802       0.90671586       0.36574823       0.20708879      -0.01229867      -0.01573025      -0.11923569      -0.00100030       0.00027219       0.00076622       1.00000000       1.50000000       2.00000000       0.03905952       0.03486831       0.02320792      -0.01139733
X       11.86804236      11.37571845      11.18727588       0.64861997      -0.12440554      -0.11218536       0.74244854       0.13953731       0.40587824      -0.62790439      -0.00847044       0.00274886       0.01063435       1.00000000       1.50000000       2.00000000      -0.03905952      -0.03486831      -0.02320792      -0.01139733
2
Properties=species:S:1:pos:R:3:quaternions:R:4:old_torques:R:3:torques:R:3:c_diameter[1]:R:1:c_diameter[2]:R:1:c_diameter[3]:R:1:forces:R:3:energies:R:1 separation_distance=3.229158805746951 old_energy=-0.46374687345948923 distance=3.2291588086616656 gb_cutoff=5.0 gb_epsilon=1.0 gb_sigma=1.0 energy=-0.004447005708315973 pbc="F F F"
X       10.00000000      10.00000000      10.00000000       0.36033628      -0.62200635       0.61150826      -0.33064107       0.75230025       0.88863644      -0.40125876      -0.00306767      -0.00088119       0.00407704       1.00000000       1.50000000       2.00000000       0.01006757       0.01179664       0.01120531      -0.00444701
X       11.88662131      11.91791538      11.78598075       0.28883963      -0.83904062       0.19141149      -0.41945696       0.06767956       0.20682207      -0.39616845       0.00348993      -0.00227850      -0.00112999       1.00000000       1.50000000       2.00000000      -0.01006757      -0.01179664      -0.01120531      -0.00444701
2
Properties=species:S:1:pos:R:3:quaternions:R:4:old_torques:R:3:torques:R:3:c_diameter[1]:R:1:c_diameter[2]:R:1:c_diameter[3]:R:1:forces:R:3:energies:R:1 separation_distance=2.7572448054536065 old_energy=-0.6379774789014426 distance=2.7572448049850573 gb_cutoff=5.0 gb_epsilon=1.0 gb_sigma=1.0 energy=-0.009354827770549629 pbc="F F F"
X       10.00000000      10.00000000      10.00000000       0.38422242      -0.85207884      -0.09135081      -0.34349644      -0.02353965      -0.08213564       0.05541534       0.01543489      -0.00692496      -0.00911377       1.00000000       1.50000000       2.00000000       0.02701422       0.02952602       0.02290902      -0.00935483
X       11.50140425      11.87617428      11.35209255       0.40341290      -0.00018940       0.16090734      -0.90075903       0.00240107      -0.03333558       0.02740526      -0.01237548       0.00905499       0.00276086       1.00000000       1.50000000       2.00000000      -0.02701422      -0.02952602      -0.02290902      -0.00935483
2
Properties=species:S:1:pos:R:3:quaternions:R:4:old_torques:R:3:torques:R:3:c_diameter[1]:R:1:c_diameter[2]:R:1:c_diameter[3]:R:1:forces:R:3:energies:R:1 separation_distance=3.197147148903626 old_energy=-0.2687770368203713 distance=3.1971471510079272 gb_cutoff=5.0 gb_epsilon=1.0 gb_sigma=1.0 energy=-0.008795181425935841 pbc="F F F"
X       10.00000000      10.00000000      10.00000000       0.54458580       0.77457573       0.20374745      -0.24888897       0.05774677       0.17523768      -0.34939509       0.00869859       0.00030518      -0.00771021       1.00000000       1.50000000       2.00000000       0.02189554       0.02405913       0.02852572      -0.00879518
X       11.87892580      11.88871239      11.76752744       0.50115106       0.66232224      -0.21848775      -0.51228895      -0.26015460      -0.02094591      -0.01937350       0.00265313      -0.01520193       0.01156116       1.00000000       1.50000000       2.00000000      -0.02189554      -0.02405913      -0.02852572      -0.00879518
2
Properties=species:S:1:pos:R:3:quaternions:R:4:old_torques:R:3:torques:R:3:c_diameter[1]:R:1:c_diameter[2]:R:1:c_diameter[3]:R:1:forces:R:3:energies:R:1 separation_distance=2.7109113341267217 old_energy=-0.6964908299004932 distance=2.7109113304720616 gb_cutoff=5.0 gb_epsilon=1.0 gb_sigma=1.0 energy=-0.012518114619600682 pbc="F F F"
X       10.00000000      10.00000000      10.00000000       0.20940160      -0.60418794      -0.55485235      -0.53220933      -0.30278726       1.20327643      -1.75125359      -0.00088456      -0.01534210       0.00537879       1.00000000       1.50000000       2.00000000       0.03126436       0.02232176       0.05319890      -0.01251811
X       11.78497610      11.08269027      11.72935894       0.25032567      -0.65016231      -0.23105800      -0.67914522      -0.02097915       3.33840682       0.06705929       0.01988017      -0.02554936       0.00061539       1.00000000       1.50000000       2.00000000      -0.03126436      -0.02232176      -0.05319890      -0.01251811
2
Properties=species:S:1:pos:R:3:quaternions:R:4:old_torques:R:3:torques:R:3:c_diameter[1]:R:1:c_diameter[2]:R:1:c_diameter[3]:R:1:forces:R:3:energies:R:1 separation_distance=2.91481027813583 old_energy=-0.541425212962403 distance=2.914810271998479 gb_cutoff=5.0 gb_epsilon=1.0 gb_sigma=1.0 energy=-0.0100804644436617 pbc="F F F"
X       10.00000000      10.00000000      10.00000000       0.77671132       0.60407364       0.17790290       0.01285028      -0.17994327      -0.97754949      -0.29262428       0.00347900       0.00805644      -0.01253527       1.00000000       1.50000000       2.00000000       0.02875441       0.03460368       0.02308933      -0.01008046
X       11.64439278      11.97041553      11.38186611       0.60961598       0.35380351       0.62523008       0.33508026       0.01518485       0.01718241       0.58979577      -0.00580108      -0.00628962       0.01277919       1.00000000       1.50000000       2.00000000      -0.02875441      -0.03460368      -0.02308933      -0.01008046
2
Properties=species:S:1:pos:R:3:quaternions:R:4:old_torques:R:3:torques:R:3:c_diameter[1]:R:1:c_diameter[2]:R:1:c_diameter[3]:R:1:forces:R:3:energies:R:1 separation_distance=2.2539424310478045 old_energy=-0.7509805204615839 distance=2.2539424325023445 gb_cutoff=5.0 gb_epsilon=1.0 gb_sigma=1.0 energy=-0.06238288932402838 pbc="F F F"
X       10.00000000      10.00000000      10.00000000       0.94917196       0.02645767       0.30676425       0.06533200       0.08147035      -0.15226795      -4.13157573      -0.10005480       0.16701372       0.02671565       1.00000000       1.50000000       2.00000000       0.33813583       0.20447356       0.13927261      -0.06238289
X       11.57442788      11.18723450      11.09174520       0.15871388      -0.29016773       0.44369289       0.83291609       0.06031650       0.16596548       1.71928981       0.04217102      -0.01713023      -0.10623329       1.00000000       1.50000000       2.00000000      -0.33813583      -0.20447356      -0.13927261      -0.06238289
2
Properties=species:S:1:pos:R:3:quaternions:R:4:old_torques:R:3:torques:R:3:c_diameter[1]:R:1:c_diameter[2]:R:1:c_diameter[3]:R:1:forces:R:3:energies:R:1 separation_distance=2.832752234364915 old_energy=-0.26187076931691083 distance=2.8327522319116074 gb_cutoff=5.0 gb_epsilon=1.0 gb_sigma=1.0 energy=-0.01790335522644196 pbc="F F F"
X       10.00000000      10.00000000      10.00000000       0.29359135       0.54524168      -0.43803135      -0.65164727      -0.10912876       0.22423496       0.35569191      -0.01386163      -0.01442857       0.02733340       1.00000000       1.50000000       2.00000000       0.05476595       0.05295595       0.06331522      -0.01790336
X       11.76094661      11.16558271      11.88811260       0.85806028      -0.29406108       0.11312664      -0.40554039      -0.00512217      -0.55919408       0.01516930      -0.01232603       0.00633812       0.00208496       1.00000000       1.50000000       2.00000000      -0.05476595      -0.05295595      -0.06331522      -0.01790336
2
Properties=species:S:1:pos:R:3:quaternions:R:4:old_torques:R:3:torques:R:3:c_diameter[1]:R:1:c_diameter[2]:R:1:c_diameter[3]:R:1:forces:R:3:energies:R:1 separation_distance=3.1466978535005654 old_energy=-0.12495003242526952 distance=3.146697852103251 gb_cutoff=5.0 gb_epsilon=1.0 gb_sigma=1.0 energy=-0.01304578998754747 pbc="F F F"
X       10.00000000      10.00000000      10.00000000       0.94599108      -0.09827782       0.22279240       0.21402310       0.07936360      -0.12012164       0.17114637      -0.01757583       0.01693327      -0.00219785       1.00000000       1.50000000       2.00000000       0.03870280       0.04029084       0.03853905      -0.01304579
X       11.92715075      11.63206103      11.87727839       0.43339864      -0.23090964      -0.71623519       0.49583617      -0.01006750      -0.04454090      -0.11773819       0.00483679      -0.01854791       0.01667905       1.00000000       1.50000000       2.00000000      -0.03870280      -0.04029084      -0.03853905      -0.01304579
2
Properties=species:S:1:pos:R:3:quaternions:R:4:old_torques:R:3:torques:R:3:c_diameter[1]:R:1:c_diameter[2]:R:1:c_diameter[3]:R:1:forces:R:3:energies:R:1 separation_distance=2.843027372150359 old_energy=-0.44669166487078377 distance=2.8430273716422723 gb_cutoff=5.0 gb_epsilon=1.0 gb_sigma=1.0 energy=-0.020756830237123793 pbc="F F F"
X       10.00000000      10.00000000      10.00000000       0.62872745       0.57245104       0.49171802      -0.18765657       0.05453256       0.93242793      -0.11977545       0.00015627       0.00457074      -0.01770868       1.00000000       1.50000000       2.00000000       0.07811051       0.06136126       0.06030739      -0.02075683
X       11.73792873      11.44123618      11.72778663       0.27181017      -0.16153081      -0.94639634       0.06603790      -0.38773183      -0.49767298      -0.54524279      -0.01925825       0.02557761       0.01177448       1.00000000       1.50000000       2.00000000      -0.07811051      -0.06136126      -0.06030739      -0.02075683
2
Properties=species:S:1:pos:R:3:quaternions:R:4:old_torques:R:3:torques:R:3:c_diameter[1]:R:1:c_diameter[2]:R:1:c_diameter[3]:R:1:forces:R:3:energies:R:1 separation_distance=3.215506332794478 old_energy=-0.38886137693534983 distance=3.2155063330263123 gb_cutoff=5.0 gb_epsilon=1.0 gb_sigma=1.0 energy=-0.0038287496651099886 pbc="F F F"
X       10.00000000      10.00000000      10.00000000       0.19864118      -0.05961680      -0.73177803      -0.64922140      -1.66570277      -4.59063597       2.35491290       0.00046550       0.00350671      -0.00348603       1.00000000       1.50000000       2.00000000       0.01083165       0.00868243       0.00830346      -0.00382875
X       11.87049346      11.71606043      11.97379629       0.59671804      -0.71280110      -0.20370781       0.30715681       3.22767367      -0.19723891      -0.24437160      -0.00335362       0.00234120       0.00113869       1.00000000       1.50000000       2.00000000      -0.01083165      -0.00868243      -0.00830346      -0.00382875
2
Properties=species:S:1:pos:R:3:quaternions:R:4:old_torques:R:3:torques:R:3:c_diameter[1]:R:1:c_diameter[2]:R:1:c_diameter[3]:R:1:forces:R:3:energies:R:1 separation_distance=2.9478588657175253 old_energy=-0.27948692317051377 distance=2.9478588634669274 gb_cutoff=5.0 gb_epsilon=1.0 gb_sigma=1.0 energy=-0.010333226826239595 pbc="F F F"
X       10.00000000      10.00000000      10.00000000       0.35043372       0.85544475       0.36313030      -0.11639101       0.01854604       0.31971516      -0.03408039      -0.00522245       0.01934956      -0.00822420       1.00000000       1.50000000       2.00000000       0.03918534       0.02451546       0.02478475      -0.01033323
X       11.84861067      11.46086025      11.77155237       0.90289032       0.13469898      -0.04615616      -0.40560431      -0.10189909      -0.87380929      -0.14224258      -0.00200093       0.00425197      -0.00370056       1.00000000       1.50000000       2.00000000      -0.03918534      -0.02451546      -0.02478475      -0.01033323
2
Properties=species:S:1:pos:R:3:quaternions:R:4:old_torques:R:3:torques:R:3:c_diameter[1]:R:1:c_diameter[2]:R:1:c_diameter[3]:R:1:forces:R:3:energies:R:1 separation_distance=2.7092143207652457 old_energy=-0.4143968556713681 distance=2.709214324225783 gb_cutoff=5.0 gb_epsilon=1.0 gb_sigma=1.0 energy=-0.006883220524488821 pbc="F F F"
X       10.00000000      10.00000000      10.00000000       0.10858830      -0.66661243      -0.59787107      -0.43172518       0.22761027      -0.63328649       0.52583376       0.00165346      -0.00641388       0.00456225       1.00000000       1.50000000       2.00000000       0.01514275       0.01840867       0.02086164      -0.00688322
X       11.48483966      11.48519090      11.71152021       0.15411401      -0.83251544      -0.44628976      -0.28981437      -0.07563761       0.63659682       0.18868221      -0.00217676       0.00135482       0.00028180       1.00000000       1.50000000       2.00000000      -0.01514275      -0.01840867      -0.02086164      -0.00688322
2
Properties=species:S:1:pos:R:3:quaternions:R:4:old_torques:R:3:torques:R:3:c_diameter[1]:R:1:c_diameter[2]:R:1:c_diameter[3]:R:1:forces:R:3:energies:R:1 separation_distance=2.5610165760185266 old_energy=-0.7222725190808673 distance=2.5610165786785677 gb_cutoff=5.0 gb_epsilon=1.0 gb_sigma=1.0 energy=-0.009641773745937393 pbc="F F F"
X       10.00000000      10.00000000      10.00000000       0.19904402      -0.94228389      -0.25274148      -0.09275934       0.11073490       1.01170688      -0.23411226      -0.00211561       0.00587549      -0.00447108       1.00000000       1.50000000       2.00000000       0.03114112       0.02879086       0.01996634      -0.00964177
X       11.73710196      11.56533207      11.04451817       0.21682451      -0.75437047      -0.56544655      -0.25334268       0.24713807      -0.69023787       0.61021243       0.00329699      -0.00803160       0.00573754       1.00000000       1.50000000       2.00000000      -0.03114112      -0.02879086      -0.01996634      -0.00964177
2
Properties=species:S:1:pos:R:3:quaternions:R:4:old_torques:R:3:torques:R:3:c_diameter[1]:R:1:c_diameter[2]:R:1:c_diameter[3]:R:1:forces:R:3:energies:R:1 separation_distance=3.0249181835618035 old_energy=-0.3256995165396925 distance=3.024918182489747 gb_cutoff=5.0 gb_epsilon=1.0 gb_sigma=1.0 energy=-0.0034174408195943597 pbc="F F F"
X       10.00000000      10.00000000      10.00000000       0.03362469       0.30239198      -0.60559823      -0.73530895      -0.05465662       0.40663568       0.15160096       0.00091601       0.00003996      -0.00190021       1.00000000       1.50000000       2.00000000       0.00965285       0.00857385       0.00568531      -0.00341744
X       11.81290179      11.96223765      11.41885183       0.96607485      -0.11343947      -0.06309557       0.22327075       0.38347217      -0.32034131       0.36123735      -0.00192509       0.00334909      -0.00149743       1.00000000       1.50000000       2.00000000      -0.00965285      -0.00857385      -0.00568531      -0.00341744
2
Properties=species:S:1:pos:R:3:quaternions:R:4:old_torques:R:3:torques:R:3:c_diameter[1]:R:1:c_diameter[2]:R:1:c_diameter[3]:R:1:forces:R:3:energies:R:1 separation_distance=3.0850621485751626 old_energy=-0.2005044327095054 distance=3.085062150845584 gb_cutoff=5.0 gb_epsilon=1.0 gb_sigma=1.0 energy=-0.007713925099583994 pbc="F F F"
X       10.00000000      10.00000000      10.00000000       0.57009510       0.53197520       0.45162720       0.43362061       0.11347172      -0.39407730       0.26400511      -0.00802960       0.00061256       0.00354792       1.00000000       1.50000000       2.00000000       0.01265082       0.02736431       0.02201569      -0.00771393
X       11.48139671      11.99674817      11.82649090       0.34276954      -0.18115963      -0.78565212       0.48212133      -0.00396732      -0.42989152       0.01614394       0.00200872      -0.01011992       0.01172897       1.00000000       1.50000000       2.00000000      -0.01265082      -0.02736431      -0.02201569      -0.00771393
2
Properties=species:S:1:pos:R:3:quaternions:R:4:old_torques:R:3:torques:R:3:c_diameter[1]:R:1:c_diameter[2]:R:1:c_diameter[3]:R:1:forces:R:3:energies:R:1 separation_distance=3.2920222458898216 old_energy=-0.08422544312784265 distance=3.2920222436175313 gb_cutoff=5.0 gb_epsilon=1.0 gb_sigma=1.0 energy=-0.0059931771279574005 pbc="F F F"
X       10.00000000      10.00000000      10.00000000       0.82248426      -0.50417564       0.17311548      -0.19838748      -0.03371385       0.17434814       0.05451887       0.00134040       0.00176377      -0.00628651       1.00000000       1.50000000       2.00000000       0.01775815       0.01668267       0.01271234      -0.00599318
X       11.98986857      11.98244690      11.71689773       0.15580115       0.74780530       0.63587892       0.11032333      -0.05086417       0.12608194       0.08428847      -0.00478129       0.00342927       0.00427824       1.00000000       1.50000000       2.00000000      -0.01775815      -0.01668267      -0.01271234      -0.00599318
2
Properties=species:S:1:pos:R:3:quaternions:R:4:old_torques:R:3:torques:R:3:c_diameter[1]:R:1:c_diameter[2]:R:1:c_diameter[3]:R:1:forces:R:3:energies:R:1 separation_distance=2.7372928619485375 old_energy=-0.4902146669080226 distance=2.737292866199265 gb_cutoff=5.0 gb_epsilon=1.0 gb_sigma=1.0 energy=-0.013075761580764556 pbc="F F F"
X       10.00000000      10.00000000      10.00000000       0.41138490       0.60875156      -0.58005177       0.35174415      -0.22543322       0.29680570       0.60298099       0.02545787      -0.00229662      -0.01744679       1.00000000       1.50000000       2.00000000       0.03773454       0.02947383       0.04884467      -0.01307576
X       11.32717083      11.42915311      11.92065385       0.28323289       0.83826564       0.34675342       0.31121039      -0.00586567      -0.28173497      -0.30151098      -0.01226038       0.00994638       0.00263517       1.00000000       1.50000000       2.00000000      -0.03773454      -0.02947383      -0.04884467      -0.01307576
2
Properties=species:S:1:pos:R:3:quaternions:R:4:old_torques:R:3:torques:R:3:c_diameter[1]:R:1:c_diameter[2]:R:1:c_diameter[3]:R:1:forces:R:3:energies:R:1 separation_distance=2.822987504086729 old_energy=-0.5114713079069577 distance=2.822987506318109 gb_cutoff=5.0 gb_epsilon=1.0 gb_sigma=1.0 energy=-0.01615177792471711 pbc="F F F"
X       10.00000000      10.00000000      10.00000000       0.25059289       0.62370513      -0.55570378      -0.48927336      -0.22244259       0.69413073       0.53863191      -0.01586083      -0.00707161       0.03330847       1.00000000       1.50000000       2.00000000       0.05222902       0.05674946       0.04162054      -0.01615178
X       11.70351064      11.56145116      11.62147471       0.39317165       0.73691545       0.50557073      -0.21626351       0.30472150       1.23245635      -0.38278264      -0.01116855       0.02085861      -0.01818822       1.00000000       1.50000000       2.00000000      -0.05222902      -0.05674946      -0.04162054      -0.01615178
2
Properties=species:S:1:pos:R:3:quaternions:R:4:old_torques:R:3:torques:R:3:c_diameter[1]:R:1:c_diameter[2]:R:1:c_diameter[3]:R:1:forces:R:3:energies:R:1 separation_distance=2.638717924144474 old_energy=-0.710061150734963 distance=2.6387179223541275 gb_cutoff=5.0 gb_epsilon=1.0 gb_sigma=1.0 energy=-0.024707724591370193 pbc="F F F"
X       10.00000000      10.00000000      10.00000000       0.42848671      -0.10827080      -0.12642105       0.88808462      -0.02621561      -0.05342348      -0.06704572      -0.00932770       0.02201549      -0.00140959       1.00000000       1.50000000       2.00000000       0.09005028       0.07446342       0.08223023      -0.02470772
X       11.69257561      11.53970998      11.31427290       0.46673342       0.59408803       0.27189316      -0.59606497      -0.17677106      -0.34097605       0.46287754       0.03807314      -0.04284572      -0.01120675       1.00000000       1.50000000       2.00000000      -0.09005028      -0.07446342      -0.08223023      -0.02470772
2
Properties=species:S:1:pos:R:3:quaternions:R:4:old_torques:R:3:torques:R:3:c_diameter[1]:R:1:c_diameter[2]:R:1:c_diameter[3]:R:1:forces:R:3:energies:R:1 separation_distance=2.8395456862361494 old_energy=-0.5721524374409332 distance=2.8395456888017527 gb_cutoff=5.0 gb_epsilon=1.0 gb_sigma=1.0 energy=-0.013694391886431552 pbc="F F F"
X       10.00000000      10.00000000      10.00000000       0.62220160       0.13454229       0.68825976       0.34793971      -0.02913329       0.06198632       0.05997873       0.01330236      -0.01655521       0.00792057       1.00000000       1.50000000       2.00000000       0.03546039       0.03934909       0.04901874      -0.01369439
X       11.46705289      11.67490802      11.76223116       0.10485037      -0.10136370      -0.34197749       0.92832279       0.00076517       0.06112036       0.00695877      -0.00054268       0.00713153      -0.00958626       1.00000000       1.50000000       2.00000000      -0.03546039      -0.03934909      -0.04901874      -0.01369439
2
Properties=species:S:1:pos:R:3:quaternions:R:4:old_torques:R:3:torques:R:3:c_diameter[1]:R:1:c_diameter[2]:R:1:c_diameter[3]:R:1:forces:R:3:energies:R:1 separation_distance=2.665377420746537 old_energy=-0.5998455179966321 distance=2.6653774203175487 gb_cutoff=5.0 gb_epsilon=1.0 gb_sigma=1.0 energy=-0.010684549631404472 pbc="F F F"
X       10.00000000      10.00000000      10.00000000       0.24663684       0.21654483      -0.87948141      -0.34466079       0.05302563       0.71407764      -0.24957505      -0.01276007       0.00876703       0.00175042       1.00000000       1.50000000       2.00000000       0.03221143       0.03756267       0.02127021      -0.01068455
X       11.42556486      11.91524253      11.18484078       0.03081715       0.20394262       0.16944423      -0.96371488      -0.04373479       0.16502991       0.77343705       0.00899190      -0.00092368      -0.00989511       1.00000000       1.50000000       2.00000000      -0.03221143      -0.03756267      -0.02127021      -0.01068455
2
Properties=species:S:1:pos:R:3:quaternions:R:4:old_torques:R:3:torques:R:3:c_diameter[1]:R:1:c_diameter[2]:R:1:c_diameter[3]:R:1:forces:R:3:energies:R:1 separation_distance=2.650773049925371 old_energy=-0.7113200939860082 distance=2.6507730534638685 gb_cutoff=5.0 gb_epsilon=1.0 gb_sigma=1.0 energy=-0.012294450481622369 pbc="F F F"
X       10.00000000      10.00000000      10.00000000       0.15597839       0.45419179       0.67371475       0.56168407       0.10940326       0.03488290      -0.07549187       0.00058644      -0.01584223       0.00925761       1.00000000       1.50000000       2.00000000       0.02394681       0.03652714       0.04541251      -0.01229445
X       11.21112187      11.61394008      11.71900524       0.04740804      -0.84981166      -0.14619121      -0.50418324      -0.03111109       0.00179513       0.07470910       0.00991629       0.00200684      -0.00366752       1.00000000       1.50000000       2.00000000      -0.02394681      -0.03652714      -0.04541251      -0.01229445
2
Properties=species:S:1:pos:R:3:quaternions:R:4:old_torques:R:3:torques:R:3:c_diameter[1]:R:1:c_diameter[2]:R:1:c_diameter[3]:R:1:forces:R:3:energies:R:1 separation_distance=2.895682258599182 old_energy=-0.6482399849008105 distance=2.8956822632842587 gb_cutoff=5.0 gb_epsilon=1.0 gb_sigma=1.0 energy=-0.015000317340813571 pbc="F F F"
X       10.00000000      10.00000000      10.00000000       0.80443687      -0.32729846       0.49370750       0.04483240      -0.13851511      -0.20505581      -0.02929004       0.01689366      -0.03537606       0.01792317       1.00000000       1.50000000       2.00000000       0.02812360       0.04439934       0.06057896      -0.01500032
X       11.35564409      11.74067852      11.87543146       0.79616260       0.57592008       0.18423902      -0.02229731      -0.11356104       0.03934749       0.02790270       0.00528693       0.00599643      -0.00668763       1.00000000       1.50000000       2.00000000      -0.02812360      -0.04439934      -0.06057896      -0.01500032
2
Properties=species:S:1:pos:R:3:quaternions:R:4:old_torques:R:3:torques:R:3:c_diameter[1]:R:1:c_diameter[2]:R:1:c_diameter[3]:R:1:forces:R:3:energies:R:1 separation_distance=2.753425220213329 old_energy=-0.6439551079858613 distance=2.7534252192068966 gb_cutoff=5.0 gb_epsilon=1.0 gb_sigma=1.0 energy=-0.014050025037329234 pbc="F F F"
X       10.00000000      10.00000000      10.00000000       0.09915919      -0.13265128       0.94408233       0.28509586      -0.00172137      -0.13421135      -0.06973777      -0.00397191       0.01340583      -0.00830304       1.00000000       1.50000000       2.00000000       0.04926696       0.03860085       0.04071329      -0.01405003
X       11.54862759      11.82373285      11.36275512       0.38975066       0.01407902       0.72265430       0.57067238       0.05740280       0.14515646      -0.11338940       0.02561857      -0.00931676      -0.02176839       1.00000000       1.50000000       2.00000000      -0.04926696      -0.03860085      -0.04071329      -0.01405003
2
Properties=species:S:1:pos:R:3:quaternions:R:4:old_torques:R:3:torques:R:3:c_diameter[1]:R:1:c_diameter[2]:R:1:c_diameter[3]:R:1:forces:R:3:energies:R:1 separation_distance=2.786369281009973 old_energy=-0.7364749157803655 distance=2.7863692811882146 gb_cutoff=5.0 gb_epsilon=1.0 gb_sigma=1.0 energy=-0.0069005654139601665 pbc="F F F"
X       10.00000000      10.00000000      10.00000000       0.60851479      -0.39544610       0.60427660      -0.32891020       0.04862138       0.15364787      -0.04317523      -0.00272294      -0.00538949       0.00686138       1.00000000       1.50000000       2.00000000       0.01186965       0.02167282       0.02055621      -0.00690057
X       11.48150236      11.57228031      11.75981225       0.65792004      -0.25693886       0.57816310      -0.40847407       0.08444524       0.38089834      -0.23103128      -0.00309703      -0.00417625       0.00658455       1.00000000       1.50000000       2.00000000      -0.01186965      -0.02167282      -0.02055621      -0.00690057
2
Properties=species:S:1:pos:R:3:quaternions:R:4:old_torques:R:3:torques:R:3:c_diameter[1]:R:1:c_diameter[2]:R:1:c_diameter[3]:R:1:forces:R:3:energies:R:1 separation_distance=2.709528696685545 old_energy=-0.6717302329952423 distance=2.7095287028563853 gb_cutoff=5.0 gb_epsilon=1.0 gb_sigma=1.0 energy=-0.026811954878357736 pbc="F F F"
X       10.00000000      10.00000000      10.00000000       0.42183992       0.71113745      -0.44796460      -0.34009165       0.10306611      -0.09046874       0.41569708      -0.03494102      -0.04411542       0.06200236       1.00000000       1.50000000       2.00000000       0.06006154       0.10668871       0.10647221      -0.02681195
X       11.70762317      11.18419068      11.73875281       0.53322371      -0.37468463      -0.57765496       0.49152686      -0.15303922      -0.33958474      -0.26965653      -0.02448087      -0.03326682       0.04905743       1.00000000       1.50000000       2.00000000      -0.06006154      -0.10668871      -0.10647221      -0.02681195
2
Properties=species:S:1:pos:R:3:quaternions:R:4:old_torques:R:3:torques:R:3:c_diameter[1]:R:1:c_diameter[2]:R:1:c_diameter[3]:R:1:forces:R:3:energies:R:1 separation_distance=2.8198987004556417 old_energy=-0.2649936186157796 distance=2.819898703027564 gb_cutoff=5.0 gb_epsilon=1.0 gb_sigma=1.0 energy=-0.0264931475913945 pbc="F F F"
X       10.00000000      10.00000000      10.00000000       0.89594781      -0.34013268       0.28320263       0.03719612       0.87190846      -2.04773133      -4.55311719       0.01473633       0.02318641      -0.02551050       1.00000000       1.50000000       2.00000000       0.10691735       0.05852491       0.09755924      -0.02649315
X       11.59506572      11.47825073      11.79509577       0.22942818       0.78476304      -0.47048493       0.33189398       0.32059166       0.10415523       1.03092015       0.02442287       0.01312706      -0.03918907       1.00000000       1.50000000       2.00000000      -0.10691735      -0.05852491      -0.09755924      -0.02649315
2
Properties=species:S:1:pos:R:3:quaternions:R:4:old_torques:R:3:torques:R:3:c_diameter[1]:R:1:c_diameter[2]:R:1:c_diameter[3]:R:1:forces:R:3:energies:R:1 separation_distance=3.038913238832588 old_energy=-0.5725422305404168 distance=3.0389132362883897 gb_cutoff=5.0 gb_epsilon=1.0 gb_sigma=1.0 energy=-0.005296432814031284 pbc="F F F"
X       10.00000000      10.00000000      10.00000000       0.71625366      -0.41206717       0.54553718      -0.13989472      -0.38604211       1.16869102       0.48331935       0.00204312      -0.01003523       0.00689054       1.00000000       1.50000000       2.00000000       0.01040006       0.01387806       0.01659657      -0.00529643
X       11.85199027      11.66680542      11.73979464       0.66668389       0.04245163       0.63771268      -0.38347488       0.27287814       0.88794568      -0.51473192       0.00147516      -0.00260750       0.00147662       1.00000000       1.50000000       2.00000000      -0.01040006      -0.01387806      -0.01659657      -0.00529643
2
Properties=species:S:1:pos:R:3:quaternions:R:4:old_torques:R:3:torques:R:3:c_diameter[1]:R:1:c_diameter[2]:R:1:c_diameter[3]:R:1:forces:R:3:energies:R:1 separation_distance=2.684402486943042 old_energy=-0.7021237771960791 distance=2.6844024927219228 gb_cutoff=5.0 gb_epsilon=1.0 gb_sigma=1.0 energy=-0.012945387975512979 pbc="F F F"
X       10.00000000      10.00000000      10.00000000       0.42278415      -0.48454150       0.38069314       0.66448915      -0.04385150       0.30580129       0.15552506       0.02664152      -0.00041908      -0.01288933       1.00000000       1.50000000       2.00000000       0.02919412       0.03306723       0.05281793      -0.01294539
X       11.10626441      11.88225275      11.56183238       0.51425709      -0.23731863       0.75230904       0.33652729       0.12150711       0.07006856       0.34730193       0.02112970      -0.01241518      -0.00548029       1.00000000       1.50000000       2.00000000      -0.02919412      -0.03306723      -0.05281793      -0.01294539
2
Properties=species:S:1:pos:R:3:quaternions:R:4:old_torques:R:3:torques:R:3:c_diameter[1]:R:1:c_diameter[2]:R:1:c_diameter[3]:R:1:forces:R:3:energies:R:1 separation_distance=2.2915573831186857 old_energy=-0.888508338152538 distance=2.2915573877083486 gb_cutoff=5.0 gb_epsilon=1.0 gb_sigma=1.0 energy=-0.03319243091665196 pbc="F F F"
X       10.00000000      10.00000000      10.00000000       0.06436253      -0.46604227       0.45100230       0.75845830      -0.29333597       2.64494625      -1.44819827       0.01218217      -0.03627925       0.01250822       1.00000000       1.50000000       2.00000000       0.15857060       0.09066871       0.08329817      -0.03319243
X       11.76549005      11.02529908      11.04069301       0.96384873       0.08711986       0.09379090      -0.23368574      -0.06445544       4.15263001      -0.28541182      -0.02113493       0.05424047      -0.01501580       1.00000000       1.50000000       2.00000000      -0.15857060      -0.09066871      -0.08329817      -0.03319243
2
Properties=species:S:1:pos:R:3:quaternions:R:4:old_torques:R:3:torques:R:3:c_diameter[1]:R:1:c_diameter[2]:R:1:c_diameter[3]:R:1:forces:R:3:energies:R:1 separation_distance=2.576250855478604 old_energy=-0.6754571334166826 distance=2.5762508529196815 gb_cutoff=5.0 gb_epsilon=1.0 gb_sigma=1.0 energy=-0.013456503932476615 pbc="F F F"
X       10.00000000      10.00000000      10.00000000       0.45865363       0.79611668       0.26509177       0.29250886      -0.28679691      -0.79027614      -0.63792565      -0.00962281       0.01587001      -0.00809567       1.00000000       1.50000000       2.00000000       0.03234899       0.04014150       0.04689412      -0.01345650
X       11.06676894      11.56880092      11.74296763       0.67073070       0.30302608       0.62843168      -0.25173227       0.12818475       0.99045882      -0.32420366       0.01322502      -0.00951195       0.00016825       1.00000000       1.50000000       2.00000000      -0.03234899      -0.04014150      -0.04689412      -0.01345650
2
Properties=species:S:1:pos:R:3:quaternions:R:4:old_torques:R:3:torques:R:3:c_diameter[1]:R:1:c_diameter[2]:R:1:c_diameter[3]:R:1:forces:R:3:energies:R:1 separation_distance=2.6898403770865627 old_energy=-0.4288821210360225 distance=2.6898403746894424 gb_cutoff=5.0 gb_epsilon=1.0 gb_sigma=1.0 energy=-0.01694772770646605 pbc="F F F"
X       10.00000000      10.00000000      10.00000000       0.72605183       0.61000105       0.22940159       0.21936809      -1.16027678      11.75542205      -1.84022754      -0.01274603       0.01318266       0.01115561       1.00000000       1.50000000       2.00000000       0.06961419       0.04662015       0.03957468      -0.01694773
X       11.83782194      11.57137686      11.17831512       0.43258268      -0.10422701       0.58869643       0.67486700       1.01246009       1.48090690       4.45067332       0.01999954      -0.00388642      -0.03486620       1.00000000       1.50000000       2.00000000      -0.06961419      -0.04662015      -0.03957468      -0.01694773
2
Properties=species:S:1:pos:R:3:quaternions:R:4:old_torques:R:3:torques:R:3:c_diameter[1]:R:1:c_diameter[2]:R:1:c_diameter[3]:R:1:forces:R:3:energies:R:1 separation_distance=3.1173498039567957 old_energy=-0.0695644114760691 distance=3.117349800204341 gb_cutoff=5.0 gb_epsilon=1.0 gb_sigma=1.0 energy=-0.00644510209880096 pbc="F F F"
X       10.00000000      10.00000000      10.00000000       0.73435165      -0.58472890       0.23151641      -0.25538190       0.00061611       0.11309851      -0.00287515       0.00628705      -0.00190225      -0.00667400       1.00000000       1.50000000       2.00000000       0.02004117       0.01342472       0.01780259      -0.00644510
X       11.91930691      11.72328353      11.75054981       0.10168019      -0.94467475      -0.15325942      -0.27159216      -0.00168796       0.05232794       0.01266573       0.00089123       0.00281668      -0.00209647       1.00000000       1.50000000       2.00000000      -0.02004117      -0.01342472      -0.01780259      -0.00644510
2
Properties=species:S:1:pos:R:3:quaternions:R:4:old_torques:R:3:torques:R:3:c_diameter[1]:R:1:c_diameter[2]:R:1:c_diameter[3]:R:1:forces:R:3:energies:R:1 separation_distance=2.7492475179686875 old_energy=-0.5781399632101957 distance=2.7492475172417805 gb_cutoff=5.0 gb_epsilon=1.0 gb_sigma=1.0 energy=-0.010353153509705415 pbc="F F F"
X       10.00000000      10.00000000      10.00000000       0.02540243       0.58610868      -0.01010738      -0.80977106      -0.26565265       1.29245307      -1.56285342       0.01060804      -0.00850388      -0.00056603       1.00000000       1.50000000       2.00000000       0.02102194       0.03394821       0.03350972      -0.01035315
X       11.13413640      11.92162305      11.60607017       0.25823219      -0.00715886      -0.84789151      -0.46297395      -0.61347944      -0.88743925       1.73636099      -0.00073821       0.00426201      -0.00132831       1.00000000       1.50000000       2.00000000      -0.02102194      -0.03394821      -0.03350972      -0.01035315
2
Properties=species:S:1:pos:R:3:quaternions:R:4:old_torques:R:3:torques:R:3:c_diameter[1]:R:1:c_diameter[2]:R:1:c_diameter[3]:R:1:forces:R:3:energies:R:1 separation_distance=3.0330220275019064 old_energy=-0.35420986764904355 distance=3.033022026784422 gb_cutoff=5.0 gb_epsilon=1.0 gb_sigma=1.0 energy=-0.008486946713866747 pbc="F F F"
X       10.00000000      10.00000000      10.00000000       0.40905701      -0.39739309      -0.75467272       0.32437661      -0.52132607      -0.43291475      -0.32010219      -0.00530339      -0.00832660       0.02110736       1.00000000       1.50000000       2.00000000       0.01568507       0.03485513       0.01784715      -0.00848695
X       11.82973060      11.95029477      11.43096431       0.87221679      -0.02179243       0.13269404      -0.47027147      -0.05867829      -0.37413798      -0.29511012      -0.00976584      -0.00188411       0.01207762       1.00000000       1.50000000       2.00000000      -0.01568507      -0.03485513      -0.01784715      -0.00848695
2
Properties=species:S:1:pos:R:3:quaternions:R:4:old_torques:R:3:torques:R:3:c_diameter[1]:R:1:c_diameter[2]:R:1:c_diameter[3]:R:1:forces:R:3:energies:R:1 separation_distance=2.842738825499464 old_energy=-0.476197879798816 distance=2.842738823109 gb_cutoff=5.0 gb_epsilon=1.0 gb_sigma=1.0 energy=-0.007986475358613649 pbc="F F F"
X       10.00000000      10.00000000      10.00000000       0.02971035      -0.20453905      -0.52937881       0.82282389       0.11998746      -0.27520253       0.51359598       0.00882056       0.00010109      -0.01026286       1.00000000       1.50000000       2.00000000       0.02494280       0.01705737       0.02389496      -0.00798648
X       11.88336415      11.32785221      11.66460566       0.45270347       0.39255433      -0.40290280      -0.69183091      -0.33071738       0.59062802       0.63861963      -0.00548539      -0.00358407       0.00926775       1.00000000       1.50000000       2.00000000      -0.02494280      -0.01705737      -0.02389496      -0.00798648
2
Properties=species:S:1:pos:R:3:quaternions:R:4:old_torques:R:3:torques:R:3:c_diameter[1]:R:1:c_diameter[2]:R:1:c_diameter[3]:R:1:forces:R:3:energies:R:1 separation_distance=3.2162448495487848 old_energy=-0.5521947795000517 distance=3.216244841884399 gb_cutoff=5.0 gb_epsilon=1.0 gb_sigma=1.0 energy=-0.0023786404489481825 pbc="F F F"
X       10.00000000      10.00000000      10.00000000       0.54476265       0.72694183       0.24877368       0.33600727      -0.05614558       2.68503210      -0.00907298      -0.00047367       0.00085471      -0.00018037       1.00000000       1.50000000       2.00000000       0.00517089       0.00599886       0.00465610      -0.00237864
X       11.72673647      11.95340923      11.88329616       0.22496612      -0.48290029       0.77234869      -0.34594083      -1.98337085       0.09875658      -0.08891465      -0.00172869       0.00084376       0.00043795       1.00000000       1.50000000       2.00000000      -0.00517089      -0.00599886      -0.00465610      -0.00237864
2
Properties=species:S:1:pos:R:3:quaternions:R:4:old_torques:R:3:torques:R:3:c_diameter[1]:R:1:c_diameter[2]:R:1:c_diameter[3]:R:1:forces:R:3:energies:R:1 separation_distance=2.5159410506012247 old_energy=-0.7951874466907365 distance=2.5159410527371273 gb_cutoff=5.0 gb_epsilon=1.0 gb_sigma=1.0 energy=-0.015607454779818225 pbc="F F F"
X       10.00000000      10.00000000      10.00000000       0.00328802      -0.37782053       0.74894170       0.54435940      -0.00852517       0.09262137      -0.22759018       0.01242218      -0.00004913      -0.01864342       1.00000000       1.50000000       2.00000000       0.04698929       0.06176236       0.03107248      -0.01560745
X       11.51724761      11.71188951      11.04754636       0.58575575      -0.32204967       0.33389346      -0.66459715       0.19677487       0.34019383      -0.40155160      -0.02392847       0.00212795       0.03191174       1.00000000       1.50000000       2.00000000      -0.04698929      -0.06176236      -0.03107248      -0.01560745
2
Properties=species:S:1:pos:R:3:quaternions:R:4:old_torques:R:3:torques:R:3:c_diameter[1]:R:1:c_diameter[2]:R:1:c_diameter[3]:R:1:forces:R:3:energies:R:1 separation_distance=2.768217014886403 old_energy=-0.32773252740932796 distance=2.768217019942951 gb_cutoff=5.0 gb_epsilon=1.0 gb_sigma=1.0 energy=-0.013631069703894926 pbc="F F F"
X       10.00000000      10.00000000      10.00000000       0.12417151       0.59986262      -0.74657014      -0.25957521      -0.01255550      -0.33437321      -0.10507176      -0.03102617       0.00123995       0.01402221       1.00000000       1.50000000       2.00000000       0.02824117       0.04255092       0.05104348      -0.01363107
X       11.33999644      11.54464302      11.86588128       0.64769480       0.35710680      -0.57782778       0.34508150      -0.07163441       0.87212640       0.11400395       0.03047516      -0.01694336      -0.00062665       1.00000000       1.50000000       2.00000000      -0.02824117      -0.04255092      -0.05104348      -0.01363107
2
Properties=species:S:1:pos:R:3:quaternions:R:4:old_torques:R:3:torques:R:3:c_diameter[1]:R:1:c_diameter[2]:R:1:c_diameter[3]:R:1:forces:R:3:energies:R:1 separation_distance=2.5708386632849605 old_energy=-0.7279175699392724 distance=2.5708386669839522 gb_cutoff=5.0 gb_epsilon=1.0 gb_sigma=1.0 energy=-0.015567413276619183 pbc="F F F"
X       10.00000000      10.00000000      10.00000000       0.00254623      -0.70830001      -0.50611737      -0.49208721       0.03017710       0.10003947      -0.99869816      -0.00833342      -0.01097424       0.00780471       1.00000000       1.50000000       2.00000000       0.03756011       0.03884972       0.06441976      -0.01556741
X       11.56402022      11.14876578      11.68623527       0.08769356      -0.68163284       0.05310998      -0.72447626       0.25994185       1.41557592       1.19177441       0.01682687      -0.02644438       0.00980926       1.00000000       1.50000000       2.00000000      -0.03756011      -0.03884972      -0.06441976      -0.01556741
2
Properties=species:S:1:pos:R:3:quaternions:R:4:old_torques:R:3:torques:R:3:c_diameter[1]:R:1:c_diameter[2]:R:1:c_diameter[3]:R:1:forces:R:3:energies:R:1 separation_distance=2.9434594019630613 old_energy=-0.2462929970512084 distance=2.9434593998036327 gb_cutoff=5.0 gb_epsilon=1.0 gb_sigma=1.0 energy=-0.005876051926138486 pbc="F F F"
X       10.00000000      10.00000000      10.00000000       0.22252088       0.66561417      -0.37877929      -0.60329801       0.00515656       0.01539869       0.20637544      -0.00447290      -0.00508911       0.00510673       1.00000000       1.50000000       2.00000000       0.01068183       0.01417163       0.02022597      -0.00587605
X       11.71038159      11.41140726      11.93558198       0.01082491      -0.67504021      -0.20236399      -0.70940281      -0.00816566      -0.74130174      -0.03071271       0.00558963      -0.00882945       0.00405574       1.00000000       1.50000000       2.00000000      -0.01068183      -0.01417163      -0.02022597      -0.00587605
2
Properties=species:S:1:pos:R:3:quaternions:R:4:old_torques:R:3:torques:R:3:c_diameter[1]:R:1:c_diameter[2]:R:1:c_diameter[3]:R:1:forces:R:3:energies:R:1 separation_distance=2.7943589757788008 old_energy=-0.5958309562182107 distance=2.7943589720434554 gb_cutoff=5.0 gb_epsilon=1.0 gb_sigma=1.0 energy=-0.012368155594936672 pbc="F F F"
X       10.00000000      10.00000000      10.00000000       0.56009549      -0.73578942       0.29127469      -0.24508371      -0.43381739      -4.44759914       0.88085106       0.01494118      -0.00394492      -0.01319815       1.00000000       1.50000000       2.00000000       0.04549482       0.01660652       0.04178188      -0.01236816
X       11.81425985      11.27463813      11.70064720       0.23816347       0.01322593       0.82480662       0.51263756       0.95382038       1.14864147       1.61419697       0.01007377       0.00551237      -0.01466274       1.00000000       1.50000000       2.00000000      -0.04549482      -0.01660652      -0.04178188      -0.01236816
2
Properties=species:S:1:pos:R:3:quaternions:R:4:old_torques:R:3:torques:R:3:c_diameter[1]:R:1:c_diameter[2]:R:1:c_diameter[3]:R:1:forces:R:3:energies:R:1 separation_distance=2.592834402179639 old_energy=-0.7019040853808631 distance=2.592834400720647 gb_cutoff=5.0 gb_epsilon=1.0 gb_sigma=1.0 energy=-0.020279277572153146 pbc="F F F"
X       10.00000000      10.00000000      10.00000000       0.26632199      -0.03978937       0.05618399       0.96142226       0.02149991       1.14573657      -0.11500790       0.00082714       0.03704719      -0.02635646       1.00000000       1.50000000       2.00000000       0.08647829       0.04360510       0.05938133      -0.02027928
X       11.67966314      11.40891721      11.38436782       0.20929695      -0.91597166       0.06646559      -0.33581696      -0.03143193      -0.07049458      -0.67303117       0.02247073      -0.01707006      -0.02224241       1.00000000       1.50000000       2.00000000      -0.08647829      -0.04360510      -0.05938133      -0.02027928
2
Properties=species:S:1:pos:R:3:quaternions:R:4:old_torques:R:3:torques:R:3:c_diameter[1]:R:1:c_diameter[2]:R:1:c_diameter[3]:R:1:forces:R:3:energies:R:1 separation_distance=2.5173629824162265 old_energy=-0.8142589375847809 distance=2.517362982669222 gb_cutoff=5.0 gb_epsilon=1.0 gb_sigma=1.0 energy=-0.09743156697497014 pbc="F F F"
X       10.00000000      10.00000000      10.00000000       0.16016015       0.08522963      -0.79180564       0.58320534      -0.23028201       1.51542992      -1.26671329       0.07001168       0.11239616      -0.22585805       1.00000000       1.50000000       2.00000000       0.46093906       0.34778762       0.36590035      -0.09743157
X       11.43308691      11.64537169      11.25544028       0.74717189      -0.54816973       0.27841513      -0.25244631      -0.12362650      -3.88085197       0.23009327       0.09540380      -0.05808169      -0.03414814       1.00000000       1.50000000       2.00000000      -0.46093906      -0.34778762      -0.36590035      -0.09743157
2
Properties=species:S:1:pos:R:3:quaternions:R:4:old_torques:R:3:torques:R:3:c_diameter[1]:R:1:c_diameter[2]:R:1:c_diameter[3]:R:1:forces:R:3:energies:R:1 separation_distance=2.728130374804767 old_energy=-0.7241706123428792 distance=2.7281303753839916 gb_cutoff=5.0 gb_epsilon=1.0 gb_sigma=1.0 energy=-0.02117309576622951 pbc="F F F"
X       10.00000000      10.00000000      10.00000000       0.63980570       0.58523787       0.45996914      -0.19124248      -0.03725379       0.00012741       0.04215382      -0.01093165       0.01904178      -0.01700504       1.00000000       1.50000000       2.00000000       0.09564528       0.07022750       0.02840057      -0.02117310
X       11.73464909      11.76380268      11.15008173       0.12709897      -0.13003568      -0.95495533       0.23451416      -0.21917965      -0.01726466      -0.04286226      -0.01974271       0.04169310      -0.02987431       1.00000000       1.50000000       2.00000000      -0.09564528      -0.07022750      -0.02840057      -0.02117310
2
Properties=species:S:1:pos:R:3:quaternions:R:4:old_torques:R:3:torques:R:3:c_diameter[1]:R:1:c_diameter[2]:R:1:c_diameter[3]:R:1:forces:R:3:energies:R:1 separation_distance=2.878168053739125 old_energy=-0.529730478387212 distance=2.8781680538648056 gb_cutoff=5.0 gb_epsilon=1.0 gb_sigma=1.0 energy=-0.0072450831903648665 pbc="F F F"
X       10.00000000      10.00000000      10.00000000       0.75289903       0.58990605       0.28404036      -0.06689532      -0.13302610      -0.74459681      -0.23765130       0.00053335       0.00428431      -0.00766982       1.00000000       1.50000000       2.00000000       0.01773744       0.02195074       0.01907564      -0.00724508
X       11.28057538      11.83431646      11.81087304       0.47802163       0.01351164       0.33474285      -0.81194826       0.04882574       0.04653917      -0.29644090      -0.00529259       0.00340815       0.00324332       1.00000000       1.50000000       2.00000000      -0.01773744      -0.02195074      -0.01907564      -0.00724508
2
Properties=species:S:1:pos:R:3:quaternions:R:4:old_torques:R:3:torques:R:3:c_diameter[1]:R:1:c_diameter[2]:R:1:c_diameter[3]:R:1:forces:R:3:energies:R:1 separation_distance=2.7165380216460084 old_energy=-0.6856547471422506 distance=2.7165380230471605 gb_cutoff=5.0 gb_epsilon=1.0 gb_sigma=1.0 energy=-0.012918939814407686 pbc="F F F"
X       10.00000000      10.00000000      10.00000000       0.48863820       0.29110526      -0.51863883       0.63836055      -0.01067671       0.27008402       0.22355384       0.00880214      -0.01738174       0.00473759       1.00000000       1.50000000       2.00000000       0.02822598       0.03319943       0.05223407      -0.01291894
X       11.43626002      11.68986769      11.56878398       0.53973445      -0.36072240       0.62420671       0.43466315      -0.35868381      -0.48703591      -0.53439015       0.02738379      -0.01335949      -0.00475275       1.00000000       1.50000000       2.00000000      -0.02822598      -0.03319943      -0.05223407      -0.01291894
2
Properties=species:S:1:pos:R:3:quaternions:R:4:old_torques:R:3:torques:R:3:c_diameter[1]:R:1:c_diameter[2]:R:1:c_diameter[3]:R:1:forces:R:3:energies:R:1 separation_distance=2.6042957443436574 old_energy=-0.7375320754485476 distance=2.6042957492687075 gb_cutoff=5.0 gb_epsilon=1.0 gb_sigma=1.0 energy=-0.01195425508941005 pbc="F F F"
X       10.00000000      10.00000000      10.00000000       0.80561825       0.00881402       0.42375207      -0.41392720      -0.04330393       1.15655665       0.04920122      -0.00045682      -0.00817242       0.01606817       1.00000000       1.50000000       2.00000000       0.03194751       0.04710462       0.02212349      -0.01195426
X       11.47573996      11.85604320      11.07687119       0.02118105      -0.37160610       0.92521067       0.07379357      -0.26004252      -1.10373169      -0.35206295      -0.00920663       0.00992725      -0.00584996       1.00000000       1.50000000       2.00000000      -0.03194751      -0.04710462      -0.02212349      -0.01195426
2
Properties=species:S:1:pos:R:3:quaternions:R:4:old_torques:R:3:torques:R:3:c_diameter[1]:R:1:c_diameter[2]:R:1:c_diameter[3]:R:1:forces:R:3:energies:R:1 separation_distance=3.0927973279295196 old_energy=-0.2633152547051501 distance=3.0927973226046985 gb_cutoff=5.0 gb_epsilon=1.0 gb_sigma=1.0 energy=-0.005872543075928328 pbc="F F F"
X       10.00000000      10.00000000      10.00000000       0.64427285       0.07231404      -0.75905025       0.05937924       0.08508113       0.63942351      -0.10523988       0.00426095      -0.01263772       0.00204623       1.00000000       1.50000000       2.00000000       0.01535602       0.00971116       0.02003774      -0.00587254
X       11.88626855      11.45033778      11.97583060       0.28450843       0.86752327      -0.20593144       0.35220814       0.01830396       0.00960932      -0.34671723       0.00561294       0.00518204      -0.00599978       1.00000000       1.50000000       2.00000000      -0.01535602      -0.00971116      -0.02003774      -0.00587254
2
Properties=species:S:1:pos:R:3:quaternions:R:4:old_torques:R:3:torques:R:3:c_diameter[1]:R:1:c_diameter[2]:R:1:c_diameter[3]:R:1:forces:R:3:energies:R:1 separation_distance=2.56417948931133 old_energy=-0.5115541571959206 distance=2.564179490849332 gb_cutoff=5.0 gb_epsilon=1.0 gb_sigma=1.0 energy=-0.011613889898142306 pbc="F F F"
X       10.00000000      10.00000000      10.00000000       0.17153143       0.86603658      -0.02897481       0.46874094       2.64527140       3.34994863       3.44854209       0.01166791      -0.00385536      -0.00607428       1.00000000       1.50000000       2.00000000       0.03223202       0.04132338       0.02644401      -0.01161389
X       11.33790939      11.81273167      11.22434424       0.14259331       0.82816778       0.52392867       0.13893895       0.24225566      -4.47515935      -0.81032698      -0.01432606       0.00793877       0.00293320       1.00000000       1.50000000       2.00000000      -0.03223202      -0.04132338      -0.02644401      -0.01161389
2
Properties=species:S:1:pos:R:3:quaternions:R:4:old_torques:R:3:torques:R:3:c_diameter[1]:R:1:c_diameter[2]:R:1:c_diameter[3]:R:1:forces:R:3:energies:R:1 separation_distance=2.561069757234829 old_energy=-0.7790614713937856 distance=2.5610697583136557 gb_cutoff=5.0 gb_epsilon=1.0 gb_sigma=1.0 energy=-0.0251273724627959 pbc="F F F"
X       10.00000000      10.00000000      10.00000000       0.61956599      -0.43601889       0.10681461       0.64390694      -0.08084617       0.02671098       0.15952463       0.00317255       0.01982970      -0.01971631       1.00000000       1.50000000       2.00000000       0.09225692       0.06861961       0.08557027      -0.02512737
X       11.64004582      11.41420429      11.36724330       0.17946149      -0.59484228       0.12822938       0.77298995       0.08277043       0.10355614      -0.05447137       0.02402159      -0.03403122       0.00178548       1.00000000       1.50000000       2.00000000      -0.09225692      -0.06861961      -0.08557027      -0.02512737
2
Properties=species:S:1:pos:R:3:quaternions:R:4:old_torques:R:3:torques:R:3:c_diameter[1]:R:1:c_diameter[2]:R:1:c_diameter[3]:R:1:forces:R:3:energies:R:1 separation_distance=3.2351807848557237 old_energy=-0.12390367972576365 distance=3.2351807868006053 gb_cutoff=5.0 gb_epsilon=1.0 gb_sigma=1.0 energy=-0.002611633099798391 pbc="F F F"
X       10.00000000      10.00000000      10.00000000       0.08520037       0.18922798       0.25475841      -0.94447436      -0.05592635       0.05427756       0.14413330       0.00008528       0.00157611      -0.00147761       1.00000000       1.50000000       2.00000000       0.00600216       0.00549865       0.00650649      -0.00261163
X       11.86245715      11.83774718      11.90271737       0.09234585      -0.61668151       0.15268953       0.76672164       0.05120687      -0.25078988       0.07146026       0.00140963      -0.00227377       0.00068816       1.00000000       1.50000000       2.00000000      -0.00600216      -0.00549865      -0.00650649      -0.00261163
2
Properties=species:S:1:pos:R:3:quaternions:R:4:old_torques:R:3:torques:R:3:c_diameter[1]:R:1:c_diameter[2]:R:1:c_diameter[3]:R:1:forces:R:3:energies:R:1 separation_distance=3.1461503389874004 old_energy=-0.07239761760393626 distance=3.1461503389827605 gb_cutoff=5.0 gb_epsilon=1.0 gb_sigma=1.0 energy=-0.0024312110957822684 pbc="F F F"
X       10.00000000      10.00000000      10.00000000       0.27148919       0.87341347       0.08582095       0.39506619      -0.01763058      -0.08745392      -0.04671602       0.00039703      -0.00013720      -0.00070758       1.00000000       1.50000000       2.00000000       0.00565672       0.00513003       0.00547229      -0.00243121
X       11.79416624      11.75303417      11.89897358       0.15328607       0.32264671      -0.59145490      -0.72289943       0.00268711       0.06528090      -0.02093385      -0.00054571       0.00106095      -0.00000471       1.00000000       1.50000000       2.00000000      -0.00565672      -0.00513003      -0.00547229      -0.00243121
2
Properties=species:S:1:pos:R:3:quaternions:R:4:old_torques:R:3:torques:R:3:c_diameter[1]:R:1:c_diameter[2]:R:1:c_diameter[3]:R:1:forces:R:3:energies:R:1 separation_distance=2.5067352987894282 old_energy=-0.5233724576017134 distance=2.5067352995442542 gb_cutoff=5.0 gb_epsilon=1.0 gb_sigma=1.0 energy=-0.029455696507933678 pbc="F F F"
X       10.00000000      10.00000000      10.00000000       0.22112361      -0.18391541       0.19469221       0.93774966      -0.05537622       0.52231131       0.16310219       0.01319413       0.03510550      -0.05193381       1.00000000       1.50000000       2.00000000       0.13539974       0.07776622       0.08661245      -0.02945570
X       11.49018591      11.50028989      11.34617906       0.69531518       0.63147771       0.23778725      -0.24744680      -0.01931327       0.02687130      -0.46563147       0.01206239       0.01809814      -0.03531892       1.00000000       1.50000000       2.00000000      -0.13539974      -0.07776622      -0.08661245      -0.02945570
2
Properties=species:S:1:pos:R:3:quaternions:R:4:old_torques:R:3:torques:R:3:c_diameter[1]:R:1:c_diameter[2]:R:1:c_diameter[3]:R:1:forces:R:3:energies:R:1 separation_distance=3.217591784355578 old_energy=-0.28647614529192317 distance=3.217591787777598 gb_cutoff=5.0 gb_epsilon=1.0 gb_sigma=1.0 energy=-0.00385259053528436 pbc="F F F"
X       10.00000000      10.00000000      10.00000000       0.33604300       0.29496536      -0.69189027      -0.56688481       0.02919276       0.27844692      -0.17451269      -0.00324266       0.00179055       0.00067763       1.00000000       1.50000000       2.00000000       0.00822059       0.00908877       0.01106594      -0.00385259
X       11.91423374      11.65039945      11.99117748       0.67562926      -0.35303047       0.64715824      -0.00898920      -0.28076990       1.06338990       0.22430287       0.00340854      -0.00660470       0.00315315       1.00000000       1.50000000       2.00000000      -0.00822059      -0.00908877      -0.01106594      -0.00385259
2
Properties=species:S:1:pos:R:3:quaternions:R:4:old_torques:R:3:torques:R:3:c_diameter[1]:R:1:c_diameter[2]:R:1:c_diameter[3]:R:1:forces:R:3:energies:R:1 separation_distance=2.3673509817123035 old_energy=-0.8488913780491066 distance=2.367350979257899 gb_cutoff=5.0 gb_epsilon=1.0 gb_sigma=1.0 energy=-0.04034187876875219 pbc="F F F"
X       10.00000000      10.00000000      10.00000000       0.23855332       0.91403230       0.28007657       0.17086363       0.06167119       0.17004827       0.50794402      -0.03111942       0.05439866       0.00574990       1.00000000       1.50000000       2.00000000       0.18236318       0.10232699       0.14226175      -0.04034188
X       11.33622052      11.14976150      11.58016261       0.47540711      -0.19724499       0.27157642       0.81322121      -0.11609448      -0.71298652       1.26201108       0.03299322       0.04367175      -0.07869264       1.00000000       1.50000000       2.00000000      -0.18236318      -0.10232699      -0.14226175      -0.04034188
2
Properties=species:S:1:pos:R:3:quaternions:R:4:old_torques:R:3:torques:R:3:c_diameter[1]:R:1:c_diameter[2]:R:1:c_diameter[3]:R:1:forces:R:3:energies:R:1 separation_distance=2.770133044521562 old_energy=-0.4235158476768143 distance=2.77013304635531 gb_cutoff=5.0 gb_epsilon=1.0 gb_sigma=1.0 energy=-0.012418376207755724 pbc="F F F"
X       10.00000000      10.00000000      10.00000000       0.10127049       0.05524100       0.26372532      -0.95767514      -1.40120920       1.62655051      -3.65068431      -0.00159805       0.00644926      -0.01185624       1.00000000       1.50000000       2.00000000       0.04375231       0.03614368       0.03006857      -0.01241838
X       11.53394412      11.71179242      11.54609807       0.90228658      -0.08423398      -0.09070867      -0.41298365       0.16425728      11.40172119       0.26358612      -0.00281247       0.01507259      -0.00759625       1.00000000       1.50000000       2.00000000      -0.04375231      -0.03614368      -0.03006857      -0.01241838
2
Properties=species:S:1:pos:R:3:quaternions:R:4:old_torques:R:3:torques:R:3:c_diameter[1]:R:1:c_diameter[2]:R:1:c_diameter[3]:R:1:forces:R:3:energies:R:1 separation_distance=2.7866063692134944 old_energy=-0.71302738280273 distance=2.786606371651701 gb_cutoff=5.0 gb_epsilon=1.0 gb_sigma=1.0 energy=-0.0063825013877051445 pbc="F F F"
X       10.00000000      10.00000000      10.00000000       0.38184442      -0.92146749      -0.06610088      -0.02689205       0.14624954       0.51868215      -0.16660166       0.00122634       0.00375393      -0.00576722       1.00000000       1.50000000       2.00000000       0.01915763       0.01776291       0.01283389      -0.00638250
X       11.54781869      11.91836365      11.29973585       0.50171277      -0.82156320      -0.26919039      -0.02923583      -0.15698590       0.45835422       0.33189274       0.00030664       0.00128139      -0.00349033       1.00000000       1.50000000       2.00000000      -0.01915763      -0.01776291      -0.01283389      -0.00638250
2
Properties=species:S:1:pos:R:3:quaternions:R:4:old_torques:R:3:torques:R:3:c_diameter[1]:R:1:c_diameter[2]:R:1:c_diameter[3]:R:1:forces:R:3:energies:R:1 separation_distance=2.964954439841811 old_energy=-0.640166765127146 distance=2.96495444066516 gb_cutoff=5.0 gb_epsilon=1.0 gb_sigma=1.0 energy=-0.0034628357215158107 pbc="F F F"
X       10.00000000      10.00000000      10.00000000       0.14807423      -0.49791997       0.85448796      -0.00023046       0.10469752      -0.53171742       0.33502106      -0.00059583      -0.00034243       0.00106026       1.00000000       1.50000000       2.00000000       0.00898506       0.00993857       0.00468741      -0.00346284
X       11.92498248      11.96799051      11.10109520       0.21749192      -0.42045490       0.81101302      -0.34376274       0.32775976      -0.75055794       0.27310022      -0.00112270       0.00121265       0.00038880       1.00000000       1.50000000       2.00000000      -0.00898506      -0.00993857      -0.00468741      -0.00346284
2
Properties=species:S:1:pos:R:3:quaternions:R:4:old_torques:R:3:torques:R:3:c_diameter[1]:R:1:c_diameter[2]:R:1:c_diameter[3]:R:1:forces:R:3:energies:R:1 separation_distance=3.111062728150472 old_energy=-0.23007639361610405 distance=3.1110627243873483 gb_cutoff=5.0 gb_epsilon=1.0 gb_sigma=1.0 energy=-0.006314303875440603 pbc="F F F"
X       10.00000000      10.00000000      10.00000000       0.45421805       0.28723552       0.83002624       0.14912463      -0.21902643       0.43084451       0.33282169       0.00473129       0.00036795      -0.00417896       1.00000000       1.50000000       2.00000000       0.01483883       0.01230099       0.02186170      -0.00631430
X       11.76647754      11.65277140      11.95617358       0.16229857      -0.69652638       0.03657911      -0.69797718      -0.03615727      -0.14968339      -0.30359471       0.00733822      -0.00995881       0.00138319       1.00000000       1.50000000       2.00000000      -0.01483883      -0.01230099      -0.02186170      -0.00631430
2
Properties=species:S:1:pos:R:3:quaternions:R:4:old_torques:R:3:torques:R:3:c_diameter[1]:R:1:c_diameter[2]:R:1:c_diameter[3]:R:1:forces:R:3:energies:R:1 separation_distance=2.7304074269284855 old_energy=-0.5847563614399798 distance=2.730407426181015 gb_cutoff=5.0 gb_epsilon=1.0 gb_sigma=1.0 energy=-0.009697330129156119 pbc="F F F"
X       10.00000000      10.00000000      10.00000000       0.57492761      -0.75879402      -0.29725714      -0.07299358      -0.29204327       1.22610871       0.39631562       0.00749538      -0.00213829      -0.01033311       1.00000000       1.50000000       2.00000000       0.03262854       0.03046774       0.01847585      -0.00969733
X       11.60524098      11.84858828      11.20873797       0.31634886       0.72544124       0.60817974      -0.06144761      -0.24307421       0.71546038       0.56664214      -0.01016865       0.01191945      -0.00107556       1.00000000       1.50000000       2.00000000      -0.03262854      -0.03046774      -0.01847585      -0.00969733
2
Properties=species:S:1:pos:R:3:quaternions:R:4:old_torques:R:3:torques:R:3:c_diameter[1]:R:1:c_diameter[2]:R:1:c_diameter[3]:R:1:forces:R:3:energies:R:1 separation_distance=3.1484947769190694 old_energy=-0.39579447020046044 distance=3.148494778672399 gb_cutoff=5.0 gb_epsilon=1.0 gb_sigma=1.0 energy=-0.006110357671358658 pbc="F F F"
X       10.00000000      10.00000000      10.00000000       0.29616823       0.33969452      -0.84993841      -0.27294085       0.04265587       0.81337385      -0.08172273      -0.00822534       0.00642260       0.00524052       1.00000000       1.50000000       2.00000000       0.01904729       0.01989028       0.00854266      -0.00611036
X       11.94957642      11.72063005      11.77527558       0.11091995       0.84352793       0.47498487      -0.22482611       0.09103424       1.29932675      -0.05117209      -0.01238662       0.01073701       0.00076375       1.00000000       1.50000000       2.00000000      -0.01904729      -0.01989028      -0.00854266      -0.00611036
2
Properties=species:S:1:pos:R:3:quaternions:R:4:old_torques:R:3:torques:R:3:c_diameter[1]:R:1:c_diameter[2]:R:1:c_diameter[3]:R:1:forces:R:3:energies:R:1 separation_distance=2.7788347471480113 old_energy=-0.6150072350352437 distance=2.7788347473309627 gb_cutoff=5.0 gb_epsilon=1.0 gb_sigma=1.0 energy=-0.008974520802382122 pbc="F F F"
X       10.00000000      10.00000000      10.00000000       0.33006829       0.25520142      -0.75692139      -0.50298825      -0.00794357      -1.16760427      -0.00650067      -0.01074401       0.00395295       0.00508699       1.00000000       1.50000000       2.00000000       0.02795319       0.02322023       0.02503476      -0.00897452
X       11.96737856      11.25282415      11.51055480       0.59270219       0.41904465       0.15809747      -0.66941085      -0.06696439      -0.00311522       0.10263290       0.00703272      -0.01098096       0.00557555       1.00000000       1.50000000       2.00000000      -0.02795319      -0.02322023      -0.02503476      -0.00897452
2
Properties=species:S:1:pos:R:3:quaternions:R:4:old_torques:R:3:torques:R:3:c_diameter[1]:R:1:c_diameter[2]:R:1:c_diameter[3]:R:1:forces:R:3:energies:R:1 separation_distance=2.5146274761388736 old_energy=-0.6308714013543857 distance=2.5146274732138703 gb_cutoff=5.0 gb_epsilon=1.0 gb_sigma=1.0 energy=-0.015626898872281105 pbc="F F F"
X       10.00000000      10.00000000      10.00000000       0.55813187      -0.01949774       0.29594510      -0.77493558       0.24486965       0.73430806       2.91091974      -0.02331662       0.00505152       0.00561932       1.00000000       1.50000000       2.00000000       0.03121213       0.06137647       0.04828472      -0.01562690
X       11.19642280      11.77965995      11.31329139       0.73198564       0.12528051      -0.61563030       0.26363070      -0.36470290      -1.97715220       2.22424431       0.02864181      -0.02182984       0.01226591       1.00000000       1.50000000       2.00000000      -0.03121213      -0.06137647      -0.04828472      -0.01562690
2
Properties=species:S:1:pos:R:3:quaternions:R:4:old_torques:R:3:torques:R:3:c_diameter[1]:R:1:c_diameter[2]:R:1:c_diameter[3]:R:1:forces:R:3:energies:R:1 separation_distance=2.977558074683782 old_energy=-0.4752703241928472 distance=2.9775580739219545 gb_cutoff=5.0 gb_epsilon=1.0 gb_sigma=1.0 energy=-0.011927161627003014 pbc="F F F"
X       10.00000000      10.00000000      10.00000000       0.31611489      -0.38888896      -0.42509939       0.75374218      -0.08894400      -0.75657178      -0.10604458       0.00961737      -0.01300951      -0.00848952       1.00000000       1.50000000       2.00000000       0.04132232       0.02073425       0.03942768      -0.01192716
X       11.92503788      11.13934783      11.96518899       0.79839400      -0.20009082       0.03776790       0.56666063       0.59735505       0.16920300      -0.19681614      -0.00544226       0.01831591       0.00132324       1.00000000       1.50000000       2.00000000      -0.04132232      -0.02073425      -0.03942768      -0.01192716
2
Properties=species:S:1:pos:R:3:quaternions:R:4:old_torques:R:3:torques:R:3:c_diameter[1]:R:1:c_diameter[2]:R:1:c_diameter[3]:R:1:forces:R:3:energies:R:1 separation_distance=2.873799495628868 old_energy=-0.18976711357261636 distance=2.873799495916315 gb_cutoff=5.0 gb_epsilon=1.0 gb_sigma=1.0 energy=-0.009339119113629646 pbc="F F F"
X       10.00000000      10.00000000      10.00000000       0.61992941       0.01688685      -0.78317431       0.04517039       0.08572927       0.38358996      -0.15187116       0.00464283      -0.01939073       0.00736004       1.00000000       1.50000000       2.00000000       0.02308806       0.01861841       0.03556763      -0.00933912
X       11.59657525      11.32451253      11.98880305       0.13954472      -0.37668265      -0.05449411       0.91414870      -0.03641786       0.24470991       0.10445310       0.00543859       0.00852194      -0.00821477       1.00000000       1.50000000       2.00000000      -0.02308806      -0.01861841      -0.03556763      -0.00933912
2
Properties=species:S:1:pos:R:3:quaternions:R:4:old_torques:R:3:torques:R:3:c_diameter[1]:R:1:c_diameter[2]:R:1:c_diameter[3]:R:1:forces:R:3:energies:R:1 separation_distance=2.791619108345799 old_energy=-0.17058226916780653 distance=2.791619103443242 gb_cutoff=5.0 gb_epsilon=1.0 gb_sigma=1.0 energy=-0.010978839178425164 pbc="F F F"
X       10.00000000      10.00000000      10.00000000       0.89841571      -0.33455896      -0.01823382      -0.28387856       0.02357677      -0.16511426       0.07234445       0.00539545       0.01613173      -0.02285151       1.00000000       1.50000000       2.00000000       0.04385158       0.02443798       0.02494038      -0.01097884
X       11.81604951      11.64693421      11.33518130       0.11245247      -0.95974328      -0.12416301      -0.22545693       0.00300959       0.04134140      -0.13657281       0.00305058      -0.00287489      -0.00498857       1.00000000       1.50000000       2.00000000      -0.04385158      -0.02443798      -0.02494038      -0.01097884
2
Properties=species:S:1:pos:R:3:quaternions:R:4:old_torques:R:3:torques:R:3:c_diameter[1]:R:1:c_diameter[2]:R:1:c_diameter[3]:R:1:forces:R:3:energies:R:1 separation_distance=2.879508881767889 old_energy=-0.5390304522800686 distance=2.879508887087842 gb_cutoff=5.0 gb_epsilon=1.0 gb_sigma=1.0 energy=-0.0068979501454156066 pbc="F F F"
X       10.00000000      10.00000000      10.00000000       0.45447630      -0.59879325      -0.61344798      -0.24203202       0.30069568      -0.30917125       0.32844469       0.00116015      -0.00575243       0.00440016       1.00000000       1.50000000       2.00000000       0.02410622       0.01579828       0.01486904      -0.00689795
X       11.97418790      11.60385807      11.34973807       0.88904358      -0.44732489      -0.08797528      -0.04197991      -0.12334104       0.18931254       0.34513805       0.00136413       0.00893525      -0.01187434       1.00000000       1.50000000       2.00000000      -0.02410622      -0.01579828      -0.01486904      -0.00689795
2
Properties=species:S:1:pos:R:3:quaternions:R:4:old_torques:R:3:torques:R:3:c_diameter[1]:R:1:c_diameter[2]:R:1:c_diameter[3]:R:1:forces:R:3:energies:R:1 separation_distance=2.834007699961003 old_energy=-0.3910645506942228 distance=2.8340076978124262 gb_cutoff=5.0 gb_epsilon=1.0 gb_sigma=1.0 energy=-0.018097135623260232 pbc="F F F"
X       10.00000000      10.00000000      10.00000000       0.44260550       0.89545224      -0.01422234       0.04542440       0.02146597       0.07572976       2.19847840       0.00901114       0.03063878      -0.02988571       1.00000000       1.50000000       2.00000000       0.05505118       0.05145060       0.06486117      -0.01809714
X       11.41737866      11.58706411      11.87186134       0.16973127      -0.59975299       0.26383406      -0.73612447       1.09132799       1.25396585       2.39766078      -0.00238071      -0.01952344       0.01544094       1.00000000       1.50000000       2.00000000      -0.05505118      -0.05145060      -0.06486117      -0.01809714
2
Properties=species:S:1:pos:R:3:quaternions:R:4:old_torques:R:3:torques:R:3:c_diameter[1]:R:1:c_diameter[2]:R:1:c_diameter[3]:R:1:forces:R:3:energies:R:1 separation_distance=3.0422079268565776 old_energy=-0.3944365690732584 distance=3.042207925935992 gb_cutoff=5.0 gb_epsilon=1.0 gb_sigma=1.0 energy=-0.005291817029419642 pbc="F F F"
X       10.00000000      10.00000000      10.00000000       0.12054504       0.15861900       0.96700587       0.15877202      -0.49090533      -0.50134295      -0.46761788       0.00130647       0.00234152      -0.00504232       1.00000000       1.50000000       2.00000000       0.01745975       0.01156640       0.01165647      -0.00529182
X       11.74111663      11.80013876      11.72714863       0.47441773       0.86807632       0.14091154       0.03892644      -0.06988214      -0.41945464      -0.34431246      -0.00030010       0.00751880      -0.00624921       1.00000000       1.50000000       2.00000000      -0.01745975      -0.01156640      -0.01165647      -0.00529182
2
Properties=species:S:1:pos:R:3:quaternions:R:4:old_torques:R:3:torques:R:3:c_diameter[1]:R:1:c_diameter[2]:R:1:c_diameter[3]:R:1:forces:R:3:energies:R:1 separation_distance=3.1104702634331143 old_energy=-0.5059885348983336 distance=3.1104702603968697 gb_cutoff=5.0 gb_epsilon=1.0 gb_sigma=1.0 energy=-0.011571464494654618 pbc="F F F"
X       10.00000000      10.00000000      10.00000000       0.76715709       0.03391865       0.57690750       0.27838331      -0.00197130      -0.10404953      -0.08902527      -0.00761025      -0.00205655       0.01514604       1.00000000       1.50000000       2.00000000       0.03113099       0.04555411       0.02317747      -0.01157146
X       11.64259951      11.98201729      11.74599529       0.89767046      -0.10584197       0.17102014       0.39209353      -0.06981976       0.10126587      -0.00019228      -0.02598886       0.01833982      -0.00202105       1.00000000       1.50000000       2.00000000      -0.03113099      -0.04555411      -0.02317747      -0.01157146
2
Properties=species:S:1:pos:R:3:quaternions:R:4:old_torques:R:3:torques:R:3:c_diameter[1]:R:1:c_diameter[2]:R:1:c_diameter[3]:R:1:forces:R:3:energies:R:1 separation_distance=2.6207319606620407 old_energy=-0.7611672247028042 distance=2.620731956375866 gb_cutoff=5.0 gb_epsilon=1.0 gb_sigma=1.0 energy=-0.01209650075751968 pbc="F F F"
X       10.00000000      10.00000000      10.00000000       0.04228135       0.05194627      -0.94127676      -0.33092587      -0.02142210      -0.01403803       0.01828637       0.00004091       0.00842776      -0.01221392       1.00000000       1.50000000       2.00000000       0.04471938       0.03724704       0.02047090      -0.01209650
X       11.55136916      11.77772678      11.14069155       0.16469339       0.03523908      -0.89432200      -0.41451472       0.10971067      -0.11077938      -0.01922344      -0.00613662       0.01082532      -0.00950100       1.00000000       1.50000000       2.00000000      -0.04471938      -0.03724704      -0.02047090      -0.01209650
2
Properties=species:S:1:pos:R:3:quaternions:R:4:old_torques:R:3:torques:R:3:c_diameter[1]:R:1:c_diameter[2]:R:1:c_diameter[3]:R:1:forces:R:3:energies:R:1 separation_distance=3.0635105500625337 old_energy=-0.5700286514829103 distance=3.0635105535520837 gb_cutoff=5.0 gb_epsilon=1.0 gb_sigma=1.0 energy=-0.007091421968986767 pbc="F F F"
X       10.00000000      10.00000000      10.00000000       0.87019203       0.32824463       0.35967450      -0.07520337      -0.00124706       0.12105142      -0.15347070      -0.00415632       0.00603210       0.00272568       1.00000000       1.50000000       2.00000000       0.02298618       0.01936957       0.01463327      -0.00709142
X       11.73901288      11.76664845      11.79996788       0.27214716      -0.00757630      -0.56312445      -0.78023675       0.29091360       1.38155684      -0.14346131      -0.00485643       0.00989485      -0.00965025       1.00000000       1.50000000       2.00000000      -0.02298618      -0.01936957      -0.01463327      -0.00709142
2
Properties=species:S:1:pos:R:3:quaternions:R:4:old_torques:R:3:torques:R:3:c_diameter[1]:R:1:c_diameter[2]:R:1:c_diameter[3]:R:1:forces:R:3:energies:R:1 separation_distance=2.3533563176201406 old_energy=-0.9320218725857908 distance=2.3533563135717186 gb_cutoff=5.0 gb_epsilon=1.0 gb_sigma=1.0 energy=-0.03838836049124821 pbc="F F F"
X       10.00000000      10.00000000      10.00000000       0.63069247       0.43756811       0.61643453       0.17541276       0.04639199       0.00121297      -0.09657607      -0.00827634      -0.00038899       0.00978608       1.00000000       1.50000000       2.00000000       0.10320544       0.14299934       0.16176873      -0.03838836
X       11.31002247      11.38862536      11.37617102       0.59121623       0.04341567      -0.55226867       0.58615507       0.01102866      -0.15957179       0.00986674       0.03612096      -0.06950335       0.03423258       1.00000000       1.50000000       2.00000000      -0.10320544      -0.14299934      -0.16176873      -0.03838836
2
Properties=species:S:1:pos:R:3:quaternions:R:4:old_torques:R:3:torques:R:3:c_diameter[1]:R:1:c_diameter[2]:R:1:c_diameter[3]:R:1:forces:R:3:energies:R:1 separation_distance=2.888428173241645 old_energy=-0.5342437347154294 distance=2.8884281707113386 gb_cutoff=5.0 gb_epsilon=1.0 gb_sigma=1.0 energy=-0.009509556947727146 pbc="F F F"
X       10.00000000      10.00000000      10.00000000       0.02246701      -0.80202498       0.52416698       0.28548231       0.32702315      -1.01666749       0.52841168       0.00001255      -0.00492308       0.01165832       1.00000000       1.50000000       2.00000000       0.01991953       0.03936723       0.01800972      -0.00950956
X       11.76509847      11.91710277      11.24585780       0.26917128       0.74913346      -0.55833342      -0.23368714      -0.19735147       0.53576217       0.62190784      -0.01453205      -0.00204894       0.01964094       1.00000000       1.50000000       2.00000000      -0.01991953      -0.03936723      -0.01800972      -0.00950956
2
Properties=species:S:1:pos:R:3:quaternions:R:4:old_torques:R:3:torques:R:3:c_diameter[1]:R:1:c_diameter[2]:R:1:c_diameter[3]:R:1:forces:R:3:energies:R:1 separation_distance=2.7264428472760205 old_energy=-0.7133361089800341 distance=2.7264428504595903 gb_cutoff=5.0 gb_epsilon=1.0 gb_sigma=1.0 energy=-0.026961815157053003 pbc="F F F"
X       10.00000000      10.00000000      10.00000000       0.59522472      -0.62570896       0.21217433      -0.45735969       0.02337712      -0.66666873      -0.35586451       0.01743693      -0.03723853       0.01065380       1.00000000       1.50000000       2.00000000       0.05042490       0.08520761       0.12344479      -0.02696182
X       11.25940235      11.68441195      11.73497917       0.04250356      -0.66931712      -0.26175768       0.69403959      -0.56187421       3.96624869      -0.92012493       0.04266151      -0.03074197       0.01172056       1.00000000       1.50000000       2.00000000      -0.05042490      -0.08520761      -0.12344479      -0.02696182
2
Properties=species:S:1:pos:R:3:quaternions:R:4:old_torques:R:3:torques:R:3:c_diameter[1]:R:1:c_diameter[2]:R:1:c_diameter[3]:R:1:forces:R:3:energies:R:1 separation_distance=2.7128069915191686 old_energy=-0.188235020499418 distance=2.7128069913162576 gb_cutoff=5.0 gb_epsilon=1.0 gb_sigma=1.0 energy=-0.019477247131922497 pbc="F F F"
X       10.00000000      10.00000000      10.00000000       0.21729521      -0.35286086       0.07093036       0.90732623      -0.00200060       0.05261397      -0.08537665       0.01840644       0.01493587      -0.01643337       1.00000000       1.50000000       2.00000000       0.07105051       0.02522247       0.07928266      -0.01947725
X       11.72398958      11.02621167      11.82594395       0.40409654      -0.13725911      -0.78310356       0.45234361      -0.00831369      -0.13872367      -0.09442969       0.01689953      -0.02188409      -0.01299622       1.00000000       1.50000000       2.00000000      -0.07105051      -0.02522247      -0.07928266      -0.01947725
2
Properties=species:S:1:pos:R:3:quaternions:R:4:old_torques:R:3:torques:R:3:c_diameter[1]:R:1:c_diameter[2]:R:1:c_diameter[3]:R:1:forces:R:3:energies:R:1 separation_distance=2.894086284762316 old_energy=-0.4262633529692989 distance=2.8940862807605865 gb_cutoff=5.0 gb_epsilon=1.0 gb_sigma=1.0 energy=-0.019789726286071306 pbc="F F F"
X       10.00000000      10.00000000      10.00000000       0.35210999       0.85853354      -0.34239559      -0.14732272      -0.06713155      -0.01013510       0.31880223      -0.02645818       0.01342437       0.01900255       1.00000000       1.50000000       2.00000000       0.05834191       0.09239080       0.02716547      -0.01978973
X       11.65063946      11.98118528      11.31378448       0.36950928       0.36179075      -0.84874161      -0.11048994       0.06039284       0.37669251      -0.10657985      -0.04110358       0.01838392       0.01791522       1.00000000       1.50000000       2.00000000      -0.05834191      -0.09239080      -0.02716547      -0.01978973
2
Properties=species:S:1:pos:R:3:quaternions:R:4:old_torques:R:3:torques:R:3:c_diameter[1]:R:1:c_diameter[2]:R:1:c_diameter[3]:R:1:forces:R:3:energies:R:1 separation_distance=2.738782394776377 old_energy=-0.2636252776005429 distance=2.738782397853052 gb_cutoff=5.0 gb_epsilon=1.0 gb_sigma=1.0 energy=-0.010769257007245504 pbc="F F F"
X       10.00000000      10.00000000      10.00000000       0.16594876      -0.68131039      -0.34674577      -0.62293221       0.02669525      -0.42384710       0.10946482       0.02094542      -0.01240734       0.00807043       1.00000000       1.50000000       2.00000000       0.01404220       0.04095026       0.03354338      -0.01076926
X       11.09625453      11.98918325      11.53045909       0.30970863       0.57584863      -0.64201174      -0.40037463      -0.01749172       0.38887772       0.02548358      -0.01689419      -0.00287374       0.00888898       1.00000000       1.50000000       2.00000000      -0.01404220      -0.04095026      -0.03354338      -0.01076926
2
Properties=species:S:1:pos:R:3:quaternions:R:4:old_torques:R:3:torques:R:3:c_diameter[1]:R:1:c_diameter[2]:R:1:c_diameter[3]:R:1:forces:R:3:energies:R:1 separation_distance=2.408612882824976 old_energy=-0.8883103977661744 distance=2.408612877085294 gb_cutoff=5.0 gb_epsilon=1.0 gb_sigma=1.0 energy=-0.033491074212319984 pbc="F F F"
X       10.00000000      10.00000000      10.00000000       0.88773763      -0.02739271       0.28360227      -0.36158166       0.02029483      -0.07369402       0.07742861      -0.06524883      -0.06808825       0.05916518       1.00000000       1.50000000       2.00000000       0.03517704       0.12387229       0.16249376      -0.03349107
X       11.04871239      11.15162918      11.83721761       0.53674212       0.17581465      -0.47788576       0.67277211      -0.10086493      -0.17437636      -0.00569544       0.02480103      -0.03769308       0.03023032       1.00000000       1.50000000       2.00000000      -0.03517704      -0.12387229      -0.16249376      -0.03349107
2
Properties=species:S:1:pos:R:3:quaternions:R:4:old_torques:R:3:torques:R:3:c_diameter[1]:R:1:c_diameter[2]:R:1:c_diameter[3]:R:1:forces:R:3:energies:R:1 separation_distance=2.8003875669316898 old_energy=-0.7433719203751885 distance=2.8003875662388333 gb_cutoff=5.0 gb_epsilon=1.0 gb_sigma=1.0 energy=-0.006775713709490572 pbc="F F F"
X       10.00000000      10.00000000      10.00000000       0.32509039      -0.72732001      -0.30203280      -0.52354372      -0.02778122       0.10781475       0.20039044       0.01232267      -0.00401909      -0.00100018       1.00000000       1.50000000       2.00000000       0.00935430       0.02033650       0.02231838      -0.00677571
X       11.07374413      11.97063196      11.67506828       0.29740116       0.65581454       0.25666794       0.64465604      -0.22072878       0.04682700      -0.15190269      -0.00240638      -0.00427605       0.00440249       1.00000000       1.50000000       2.00000000      -0.00935430      -0.02033650      -0.02231838      -0.00677571
2
Properties=species:S:1:pos:R:3:quaternions:R:4:old_torques:R:3:torques:R:3:c_diameter[1]:R:1:c_diameter[2]:R:1:c_diameter[3]:R:1:forces:R:3:energies:R:1 separation_distance=2.5051167548521858 old_energy=-0.8181153602405221 distance=2.5051167566549553 gb_cutoff=5.0 gb_epsilon=1.0 gb_sigma=1.0 energy=-0.018219808901778923 pbc="F F F"
X       10.00000000      10.00000000      10.00000000       0.43064867       0.48653618      -0.71040610      -0.27045785      -0.09098099       0.44717289       0.38947013      -0.03579394       0.00915893       0.03509475       1.00000000       1.50000000       2.00000000       0.04801114       0.08238566       0.03311186      -0.01821981
X       11.36670612      11.68830616      11.24793696       0.51108579       0.67636596       0.41501956       0.33027135       0.03991849      -0.67751175      -0.00491985      -0.01111520       0.00550176      -0.00355526       1.00000000       1.50000000       2.00000000      -0.04801114      -0.08238566      -0.03311186      -0.01821981
2
Properties=species:S:1:pos:R:3:quaternions:R:4:old_torques:R:3:torques:R:3:c_diameter[1]:R:1:c_diameter[2]:R:1:c_diameter[3]:R:1:forces:R:3:energies:R:1 separation_distance=2.563219341024133 old_energy=-0.813893863521269 distance=2.563219343159941 gb_cutoff=5.0 gb_epsilon=1.0 gb_sigma=1.0 energy=-0.017010504415732205 pbc="F F F"
X       10.00000000      10.00000000      10.00000000       0.12507413      -0.30722519      -0.57045642       0.75136450       0.23507403      -0.33743467       0.23655124       0.02772904      -0.00785571      -0.01925047       1.00000000       1.50000000       2.00000000       0.05193040       0.04208332       0.06349268      -0.01701050
X       11.43580809      11.40587554      11.59124558       0.00310126       0.85336247       0.33958278       0.39553308      -0.02732642       0.02335175       0.25456295      -0.00543113      -0.00067358       0.00666636       1.00000000       1.50000000       2.00000000      -0.05193040      -0.04208332      -0.06349268      -0.01701050
2
Properties=species:S:1:pos:R:3:quaternions:R:4:old_torques:R:3:torques:R:3:c_diameter[1]:R:1:c_diameter[2]:R:1:c_diameter[3]:R:1:forces:R:3:energies:R:1 separation_distance=2.6830336729403217 old_energy=-0.7702149875756392 distance=2.683033675011004 gb_cutoff=5.0 gb_epsilon=1.0 gb_sigma=1.0 energy=-0.010044316889048195 pbc="F F F"
X       10.00000000      10.00000000      10.00000000       0.15731858      -0.62316898       0.58814301       0.49091657      -0.00624125       1.22383432      -0.04738155      -0.00545547      -0.00538475       0.00465467       1.00000000       1.50000000       2.00000000       0.02204691       0.02248847       0.03833857      -0.01004432
X       11.51020459      11.08614421      11.93345353       0.38979207       0.27149030      -0.45409576       0.75375872       0.00604768      -0.35907020      -0.49155337       0.00361626      -0.00988765       0.00536140       1.00000000       1.50000000       2.00000000      -0.02204691      -0.02248847      -0.03833857      -0.01004432
2
Properties=species:S:1:pos:R:3:quaternions:R:4:old_torques:R:3:torques:R:3:c_diameter[1]:R:1:c_diameter[2]:R:1:c_diameter[3]:R:1:forces:R:3:energies:R:1 separation_distance=2.9882911322813435 old_energy=-0.4586092480044269 distance=2.9882911298288346 gb_cutoff=5.0 gb_epsilon=1.0 gb_sigma=1.0 energy=-0.005226160075534752 pbc="F F F"
X       10.00000000      10.00000000      10.00000000       0.21014940       0.42564837      -0.05708735      -0.87829478       0.11205955      -0.16395761      -0.97675601       0.00157385      -0.00161957       0.00018738       1.00000000       1.50000000       2.00000000       0.01419818       0.01258909       0.01330455      -0.00522616
X       11.85009571      11.83606016      11.46147625       0.37064236       0.20333893       0.86389177       0.27380383       0.73302668      -0.13007111      -0.15159095       0.00445545      -0.00224481      -0.00296507       1.00000000       1.50000000       2.00000000      -0.01419818      -0.01258909      -0.01330455      -0.00522616
2
Properties=species:S:1:pos:R:3:quaternions:R:4:old_torques:R:3:torques:R:3:c_diameter[1]:R:1:c_diameter[2]:R:1:c_diameter[3]:R:1:forces:R:3:energies:R:1 separation_distance=2.6831524662536865 old_energy=-0.524768966844074 distance=2.68315246478349 gb_cutoff=5.0 gb_epsilon=1.0 gb_sigma=1.0 energy=-0.021035555485722113 pbc="F F F"
X       10.00000000      10.00000000      10.00000000       0.35122574      -0.21519563       0.59209991       0.69263917       0.15740757       0.50569270      -0.60525634       0.03867221      -0.00596942      -0.04342898       1.00000000       1.50000000       2.00000000       0.08125021       0.05975718       0.06262030      -0.02103556
X       11.74516164      11.70109206      11.12249891       0.66930017       0.40228531       0.62122028      -0.06549176      -0.26762024       0.73311040       0.59098316       0.00077331      -0.01210985       0.00950083       1.00000000       1.50000000       2.00000000      -0.08125021      -0.05975718      -0.06262030      -0.02103556
2
Properties=species:S:1:pos:R:3:quaternions:R:4:old_torques:R:3:torques:R:3:c_diameter[1]:R:1:c_diameter[2]:R:1:c_diameter[3]:R:1:forces:R:3:energies:R:1 separation_distance=2.8094247499666634 old_energy=-0.5948427587302642 distance=2.8094247445317153 gb_cutoff=5.0 gb_epsilon=1.0 gb_sigma=1.0 energy=-0.01606220207556387 pbc="F F F"
X       10.00000000      10.00000000      10.00000000       0.62419565      -0.47397138      -0.25751783      -0.56516856       0.15955008      -0.47071363       0.64757082       0.04762127      -0.00508451      -0.02074872       1.00000000       1.50000000       2.00000000       0.03906002       0.02856717       0.07625495      -0.01606220
X       11.25956519      11.73279200      11.81763440       0.70513695       0.39054153      -0.57646840       0.13395294      -0.01033965       1.40645129      -0.05594296       0.03258802      -0.01996674      -0.01095195       1.00000000       1.50000000       2.00000000      -0.03906002      -0.02856717      -0.07625495      -0.01606220
2
Properties=species:S:1:pos:R:3:quaternions:R:4:old_torques:R:3:torques:R:3:c_diameter[1]:R:1:c_diameter[2]:R:1:c_diameter[3]:R:1:forces:R:3:energies:R:1 separation_distance=3.0634592376106218 old_energy=-0.5476394413505048 distance=3.0634592405748493 gb_cutoff=5.0 gb_epsilon=1.0 gb_sigma=1.0 energy=-0.006722100517999156 pbc="F F F"
X       10.00000000      10.00000000      10.00000000       0.27867607      -0.06880985       0.54631737       0.78685589       0.24282709       0.84703855      -0.25197819       0.00771531       0.00437880      -0.01354264       1.00000000       1.50000000       2.00000000       0.02080836       0.01630265       0.01728080      -0.00672210
X       11.82264460      11.77037441      11.71129297       0.73636139       0.09605833      -0.19672926       0.64018927       0.52983052       0.74886157      -0.42347781      -0.00502043      -0.00026637       0.00641799       1.00000000       1.50000000       2.00000000      -0.02080836      -0.01630265      -0.01728080      -0.00672210
2
Properties=species:S:1:pos:R:3:quaternions:R:4:old_torques:R:3:torques:R:3:c_diameter[1]:R:1:c_diameter[2]:R:1:c_diameter[3]:R:1:forces:R:3:energies:R:1 separation_distance=3.1264350136974475 old_energy=-0.18841903754395595 distance=3.1264350140724364 gb_cutoff=5.0 gb_epsilon=1.0 gb_sigma=1.0 energy=-0.013190441733622545 pbc="F F F"
X       10.00000000      10.00000000      10.00000000       0.51274865       0.30863897      -0.71360620       0.36413871      -0.04823553       0.25933055       0.15518957       0.02216806      -0.02198438      -0.00449801       1.00000000       1.50000000       2.00000000       0.03590800       0.02872195       0.05143925      -0.01319044
X       11.62884850      11.78796656      11.98106639       0.86449245      -0.47018163       0.16818864       0.05739876      -0.18231830       0.16263922       0.19547460       0.01290349       0.00933376      -0.01292058       1.00000000       1.50000000       2.00000000      -0.03590800      -0.02872195      -0.05143925      -0.01319044
2
Properties=species:S:1:pos:R:3:quaternions:R:4:old_torques:R:3:torques:R:3:c_diameter[1]:R:1:c_diameter[2]:R:1:c_diameter[3]:R:1:forces:R:3:energies:R:1 separation_distance=2.5062764337494396 old_energy=-0.8070996351035415 distance=2.506276433457656 gb_cutoff=5.0 gb_epsilon=1.0 gb_sigma=1.0 energy=-0.032783128391816935 pbc="F F F"
X       10.00000000      10.00000000      10.00000000       0.61308561      -0.00800517      -0.00164738      -0.78997420      -0.14419742      -0.18352935      -0.08745728      -0.02862151       0.01106243       0.02496323       1.00000000       1.50000000       2.00000000       0.10392604       0.16807732       0.04000184      -0.03278313
X       11.22827342      11.92579603      11.03154041       0.34659855       0.54116523      -0.70993639       0.28809713       0.03143342       0.10440286      -0.01031703      -0.06772166       0.04700829      -0.01865869       1.00000000       1.50000000       2.00000000      -0.10392604      -0.16807732      -0.04000184      -0.03278313
2
Properties=species:S:1:pos:R:3:quaternions:R:4:old_torques:R:3:torques:R:3:c_diameter[1]:R:1:c_diameter[2]:R:1:c_diameter[3]:R:1:forces:R:3:energies:R:1 separation_distance=3.120318953716307 old_energy=-0.2923028225597697 distance=3.120318952917535 gb_cutoff=5.0 gb_epsilon=1.0 gb_sigma=1.0 energy=-0.006827715389867352 pbc="F F F"
X       10.00000000      10.00000000      10.00000000       0.25365152      -0.51771800      -0.81363657      -0.07499671       1.58046168      -0.67031479      -1.24468551      -0.00511679      -0.00417971       0.00836831       1.00000000       1.50000000       2.00000000       0.01438175       0.02238722       0.01759638      -0.00682772
X       11.44023998      11.91921847      11.99466780       0.06616595       0.98885762      -0.13331413       0.00316407      -2.67760208      -1.92905793       1.92345057      -0.00576698       0.00752350      -0.00372705       1.00000000       1.50000000       2.00000000      -0.01438175      -0.02238722      -0.01759638      -0.00682772
2
Properties=species:S:1:pos:R:3:quaternions:R:4:old_torques:R:3:torques:R:3:c_diameter[1]:R:1:c_diameter[2]:R:1:c_diameter[3]:R:1:forces:R:3:energies:R:1 separation_distance=2.968745970188937 old_energy=-0.619091455797786 distance=2.9687459730443573 gb_cutoff=5.0 gb_epsilon=1.0 gb_sigma=1.0 energy=-0.005442867499629545 pbc="F F F"
X       10.00000000      10.00000000      10.00000000       0.82586216       0.31806862       0.17235455      -0.43252509      -0.07992297      -0.65975952      -0.12835372      -0.00074406      -0.00384273       0.00390541       1.00000000       1.50000000       2.00000000       0.01127945       0.01485958       0.01548308      -0.00544287
X       11.70357863      11.60182934      11.82904764       0.25039957      -0.63103695       0.70281266       0.21247776       0.21496030      -1.12158186       0.20791755      -0.00163357      -0.00190327       0.00334130       1.00000000       1.50000000       2.00000000      -0.01127945      -0.01485958      -0.01548308      -0.00544287
2
Properties=species:S:1:pos:R:3:quaternions:R:4:old_torques:R:3:torques:R:3:c_diameter[1]:R:1:c_diameter[2]:R:1:c_diameter[3]:R:1:forces:R:3:energies:R:1 separation_distance=2.767696021672383 old_energy=-0.24149121190049697 distance=2.767696019744439 gb_cutoff=5.0 gb_epsilon=1.0 gb_sigma=1.0 energy=-0.008934312640374644 pbc="F F F"
X       10.00000000      10.00000000      10.00000000       0.17005740      -0.23995557       0.04723094       0.95460518      -0.00831078      -0.11405638      -0.03248611       0.00519315       0.00208598      -0.00860524       1.00000000       1.50000000       2.00000000       0.03422167       0.01722930       0.02138291      -0.00893431
X       11.89634129      11.25840792      11.57494142       0.93636265       0.32471389       0.11784188      -0.06244331      -0.02108648      -0.56931913      -0.02413259      -0.00541987       0.01126185      -0.00178694       1.00000000       1.50000000       2.00000000      -0.03422167      -0.01722930      -0.02138291      -0.00893431
2
Properties=species:S:1:pos:R:3:quaternions:R:4:old_torques:R:3:torques:R:3:c_diameter[1]:R:1:c_diameter[2]:R:1:c_diameter[3]:R:1:forces:R:3:energies:R:1 separation_distance=2.9193185607440797 old_energy=-0.43221004509490873 distance=2.919318560937101 gb_cutoff=5.0 gb_epsilon=1.0 gb_sigma=1.0 energy=-0.009704973121660238 pbc="F F F"
X       10.00000000      10.00000000      10.00000000       0.15680373      -0.71501318       0.24901335      -0.63416173       0.03433231       0.01855123      -0.61073537       0.00787032      -0.00591094       0.00069564       1.00000000       1.50000000       2.00000000       0.02122077       0.02467655       0.03593694      -0.00970497
X       11.75434476      11.42022735      11.85139126       0.28425049       0.73008203      -0.23012475      -0.57725599       0.23676732      -0.38526512       0.62717147      -0.00251765      -0.01784688       0.01245722       1.00000000       1.50000000       2.00000000      -0.02122077      -0.02467655      -0.03593694      -0.00970497
2
Properties=species:S:1:pos:R:3:quaternions:R:4:old_torques:R:3:torques:R:3:c_diameter[1]:R:1:c_diameter[2]:R:1:c_diameter[3]:R:1:forces:R:3:energies:R:1 separation_distance=2.8918138675026057 old_energy=-0.5075695547387683 distance=2.8918138634768797 gb_cutoff=5.0 gb_epsilon=1.0 gb_sigma=1.0 energy=-0.011984658073940101 pbc="F F F"
X       10.00000000      10.00000000      10.00000000       0.60479099       0.23803778       0.75023869      -0.12127567      -0.39319152       1.29443659       0.49157684       0.00704039      -0.01671108       0.00072939       1.00000000       1.50000000       2.00000000       0.03903297       0.01969872       0.04440495      -0.01198466
X       11.79560247      11.43781749      11.75244973       0.77656161      -0.43885989      -0.10139566      -0.44053716       0.13108122      -0.48183998       0.55535463       0.02228481       0.00538077      -0.02148062       1.00000000       1.50000000       2.00000000      -0.03903297      -0.01969872      -0.04440495      -0.01198466
2
Properties=species:S:1:pos:R:3:quaternions:R:4:old_torques:R:3:torques:R:3:c_diameter[1]:R:1:c_diameter[2]:R:1:c_diameter[3]:R:1:forces:R:3:energies:R:1 separation_distance=3.0245528368034558 old_energy=-0.45639219921979407 distance=3.0245528432695945 gb_cutoff=5.0 gb_epsilon=1.0 gb_sigma=1.0 energy=-0.010074988422776368 pbc="F F F"
X       10.00000000      10.00000000      10.00000000       0.76300526      -0.19209417      -0.60622576       0.11581508       0.54989568       0.71343083      -0.41845689       0.00185548      -0.01329086       0.00641026       1.00000000       1.50000000       2.00000000       0.02873745       0.02293261       0.03514842      -0.01007499
X       11.98856309      11.35709711      11.83079878       0.89547344      -0.30669747       0.32258268      -0.00209446      -0.07397514       0.11584031       0.49440253       0.00385934      -0.00399148       0.00019317       1.00000000       1.50000000       2.00000000      -0.02873745      -0.02293261      -0.03514842      -0.01007499
2
Properties=species:S:1:pos:R:3:quaternions:R:4:old_torques:R:3:torques:R:3:c_diameter[1]:R:1:c_diameter[2]:R:1:c_diameter[3]:R:1:forces:R:3:energies:R:1 separation_distance=2.8360463353828917 old_energy=-0.6274508654813339 distance=2.8360463335307164 gb_cutoff=5.0 gb_epsilon=1.0 gb_sigma=1.0 energy=-0.008491979415348532 pbc="F F F"
X       10.00000000      10.00000000      10.00000000       0.84089670       0.27985366      -0.15778816      -0.43551988      -0.57340008      -1.28528801      -0.52490907       0.00225272       0.00003282      -0.00056268       1.00000000       1.50000000       2.00000000       0.02911465       0.01911305       0.02165900      -0.00849198
X       11.91775468      11.59817248      11.34581593       0.43271535      -0.84709357      -0.17274935      -0.25563171      -0.01025415      -0.12008875      -0.20721974       0.00663945      -0.00238650      -0.00931341       1.00000000       1.50000000       2.00000000      -0.02911465      -0.01911305      -0.02165900      -0.00849198
2
Properties=species:S:1:pos:R:3:quaternions:R:4:old_torques:R:3:torques:R:3:c_diameter[1]:R:1:c_diameter[2]:R:1:c_diameter[3]:R:1:forces:R:3:energies:R:1 separation_distance=2.796406574109269 old_energy=-0.6451539185678158 distance=2.7964065745102045 gb_cutoff=5.0 gb_epsilon=1.0 gb_sigma=1.0 energy=-0.00846891595607302 pbc="F F F"
X       10.00000000      10.00000000      10.00000000       0.64136063      -0.28580517       0.06511091       0.70903633      -0.01901356      -0.19800334       0.62092710      -0.00642063       0.00894129      -0.00147366       1.00000000       1.50000000       2.00000000       0.02715157       0.02396007       0.01984220      -0.00846892
X       11.75449436      11.48518686      11.59243815       0.46204943       0.07540425       0.33826424      -0.81633439      -0.14271690      -0.17187673       0.45187504      -0.00226492      -0.00051713       0.00318632       1.00000000       1.50000000       2.00000000      -0.02715157      -0.02396007      -0.01984220      -0.00846892
2
Properties=species:S:1:pos:R:3:quaternions:R:4:old_torques:R:3:torques:R:3:c_diameter[1]:R:1:c_diameter[2]:R:1:c_diameter[3]:R:1:forces:R:3:energies:R:1 separation_distance=2.7583368978724905 old_energy=-0.4376884266294059 distance=2.7583368975798295 gb_cutoff=5.0 gb_epsilon=1.0 gb_sigma=1.0 energy=-0.012491507050486765 pbc="F F F"
X       10.00000000      10.00000000      10.00000000       0.02271311       0.84025895       0.53482152       0.08611009      -0.07133703       0.27570543       0.47849541      -0.01356393       0.01108085       0.00580439       1.00000000       1.50000000       2.00000000       0.03701953       0.04389692       0.02987563      -0.01249151
X       11.41843601      11.92591129      11.37380036       0.76874866       0.58499139       0.10559603      -0.23592383      -0.23046269      -1.12770200      -0.32343380       0.01079615      -0.00260008      -0.01483575       1.00000000       1.50000000       2.00000000      -0.03701953      -0.04389692      -0.02987563      -0.01249151
2
Properties=species:S:1:pos:R:3:quaternions:R:4:old_torques:R:3:torques:R:3:c_diameter[1]:R:1:c_diameter[2]:R:1:c_diameter[3]:R:1:forces:R:3:energies:R:1 separation_distance=2.703335523877583 old_energy=-0.6603430222680894 distance=2.7033355292035597 gb_cutoff=5.0 gb_epsilon=1.0 gb_sigma=1.0 energy=-0.014524361012383006 pbc="F F F"
X       10.00000000      10.00000000      10.00000000       0.29841464       0.44058972      -0.48793287       0.69191829      -0.38422442       1.03145749       0.52416097       0.00126821      -0.00525122       0.00130225       1.00000000       1.50000000       2.00000000       0.05814756       0.03060440       0.03999014      -0.01452436
X       11.95667456      11.42582770      11.20268991       0.29008551      -0.17921804       0.66034614       0.66908465       0.11302562       0.52243401      -0.39382840       0.01894323      -0.00306299      -0.02432780       1.00000000       1.50000000       2.00000000      -0.05814756      -0.03060440      -0.03999014      -0.01452436
2
Properties=species:S:1:pos:R:3:quaternions:R:4:old_torques:R:3:torques:R:3:c_diameter[1]:R:1:c_diameter[2]:R:1:c_diameter[3]:R:1:forces:R:3:energies:R:1 separation_distance=2.575870936074035 old_energy=-0.7713333434288404 distance=2.5758709379794533 gb_cutoff=5.0 gb_epsilon=1.0 gb_sigma=1.0 energy=-0.015374992720591375 pbc="F F F"
X       10.00000000      10.00000000      10.00000000       0.44306179      -0.76902654      -0.34520425      -0.30516954       0.11268846      -0.19746321       0.29545769       0.00466403      -0.00529158      -0.00475505       1.00000000       1.50000000       2.00000000       0.05436504       0.03179002       0.05338443      -0.01537499
X       11.75880044      11.28044035      11.37920434       0.39939134      -0.78692005       0.24548232      -0.40122541       0.19391681       0.39747512      -0.28715848       0.01984661      -0.01362048      -0.00894383       1.00000000       1.50000000       2.00000000      -0.05436504      -0.03179002      -0.05338443      -0.01537499
2
Properties=species:S:1:pos:R:3:quaternions:R:4:old_torques:R:3:torques:R:3:c_diameter[1]:R:1:c_diameter[2]:R:1:c_diameter[3]:R:1:forces:R:3:energies:R:1 separation_distance=2.844236953104318 old_energy=-0.3785603367700211 distance=2.844236957584784 gb_cutoff=5.0 gb_epsilon=1.0 gb_sigma=1.0 energy=-0.00929174768528408 pbc="F F F"
X       10.00000000      10.00000000      10.00000000       0.22093298       0.42828634      -0.75305459       0.44796005      -0.13841442       0.23217493       0.52603138      -0.00450142       0.01275912      -0.00910071       1.00000000       1.50000000       2.00000000       0.03593713       0.02165033       0.01826242      -0.00929175
X       11.92529207      11.45761355      11.50276314       0.12206328       0.17148909      -0.70052625      -0.68187611       0.10278896       0.95169185      -0.12046602      -0.00141435       0.00608538      -0.00159852       1.00000000       1.50000000       2.00000000      -0.03593713      -0.02165033      -0.01826242      -0.00929175
2
Properties=species:S:1:pos:R:3:quaternions:R:4:old_torques:R:3:torques:R:3:c_diameter[1]:R:1:c_diameter[2]:R:1:c_diameter[3]:R:1:forces:R:3:energies:R:1 separation_distance=2.7605247856637942 old_energy=-0.4963462609135235 distance=2.7605247842279295 gb_cutoff=5.0 gb_epsilon=1.0 gb_sigma=1.0 energy=-0.005735247575372075 pbc="F F F"
X       10.00000000      10.00000000      10.00000000       0.31940295      -0.71455199      -0.59068200      -0.19619377      -0.18642279       0.46375126       0.67770395      -0.00143089      -0.00152295       0.00305970       1.00000000       1.50000000       2.00000000       0.01406661       0.01396440       0.01611137      -0.00573525
X       11.72168610      11.33207150      11.69760996       0.12528866      -0.59332598       0.64759118       0.46140296       0.08982794      -0.84681072       0.20905004      -0.00081372      -0.00233616       0.00224489       1.00000000       1.50000000       2.00000000      -0.01406661      -0.01396440      -0.01611137      -0.00573525
2
Properties=species:S:1:pos:R:3:quaternions:R:4:old_torques:R:3:torques:R:3:c_diameter[1]:R:1:c_diameter[2]:R:1:c_diameter[3]:R:1:forces:R:3:energies:R:1 separation_distance=2.7440183833017757 old_energy=-0.6768019941466551 distance=2.7440183837204444 gb_cutoff=5.0 gb_epsilon=1.0 gb_sigma=1.0 energy=-0.011380043931146699 pbc="F F F"
X       10.00000000      10.00000000      10.00000000       0.07190005       0.28895173      -0.91189402      -0.28246517      -0.04643529       0.08016713       0.16890277      -0.00696469       0.00885073      -0.00213352       1.00000000       1.50000000       2.00000000       0.03580571       0.04028130       0.02383518      -0.01138004
X       11.26046283      11.80813838      11.63447421       0.78706339      -0.39529875       0.08454313       0.46596413       0.02842853      -0.03079805       0.07830691      -0.01577676       0.01962942      -0.01183507       1.00000000       1.50000000       2.00000000      -0.03580571      -0.04028130      -0.02383518      -0.01138004
2
Properties=species:S:1:pos:R:3:quaternions:R:4:old_torques:R:3:torques:R:3:c_diameter[1]:R:1:c_diameter[2]:R:1:c_diameter[3]:R:1:forces:R:3:energies:R:1 separation_distance=3.019478078335581 old_energy=-0.6065725953038134 distance=3.019478077767215 gb_cutoff=5.0 gb_epsilon=1.0 gb_sigma=1.0 energy=-0.008132742910401536 pbc="F F F"
X       10.00000000      10.00000000      10.00000000       0.44195349      -0.69993813      -0.33620136       0.44914627      -0.65598205      -1.01498320      -0.36401001      -0.01096775       0.00261977       0.00970384       1.00000000       1.50000000       2.00000000       0.02309965       0.02425586       0.01970742      -0.00813274
X       11.88008338      11.46614370      11.85282406       0.67186808       0.47799008       0.55882227       0.08852367       0.01630057       0.39784250      -0.01802070      -0.00508017       0.00312823       0.00203178       1.00000000       1.50000000       2.00000000      -0.02309965      -0.02425586      -0.01970742      -0.00813274
2
Properties=species:S:1:pos:R:3:quaternions:R:4:old_torques:R:3:torques:R:3:c_diameter[1]:R:1:c_diameter[2]:R:1:c_diameter[3]:R:1:forces:R:3:energies:R:1 separation_distance=2.8266105662889145 old_energy=-0.43914131413714386 distance=2.8266105683596234 gb_cutoff=5.0 gb_epsilon=1.0 gb_sigma=1.0 energy=-0.014949516047241427 pbc="F F F"
X       10.00000000      10.00000000      10.00000000       0.60085112      -0.72212335      -0.11547634      -0.32277083      -0.00521738       0.06354228       0.39823037       0.02842727      -0.00175060      -0.02309677       1.00000000       1.50000000       2.00000000       0.04653039       0.03582455       0.05512380      -0.01494952
X       11.71811557      11.57074596      11.60329764       0.56411335       0.36677826       0.61013879       0.41830669       0.28756148      -0.31674387       0.55383523       0.00072080      -0.01835640       0.01156007       1.00000000       1.50000000       2.00000000      -0.04653039      -0.03582455      -0.05512380      -0.01494952
2
Properties=species:S:1:pos:R:3:quaternions:R:4:old_torques:R:3:torques:R:3:c_diameter[1]:R:1:c_diameter[2]:R:1:c_diameter[3]:R:1:forces:R:3:energies:R:1 separation_distance=2.855159640027662 old_energy=-0.6235089927170098 distance=2.855159638530026 gb_cutoff=5.0 gb_epsilon=1.0 gb_sigma=1.0 energy=-0.007149796809470321 pbc="F F F"
X       10.00000000      10.00000000      10.00000000       0.66591806       0.08473582      -0.72989326       0.12895273       0.06618043      -0.30815190       0.14659735       0.00771352      -0.01400146       0.00567896       1.00000000       1.50000000       2.00000000       0.01591114       0.01834074       0.02373275      -0.00714980
X       11.70297893      11.58082025      11.65915842       0.49090774       0.27734578       0.35015315      -0.74798508       0.04362709      -0.04577779       0.05794190      -0.00062652      -0.00001581       0.00040230       1.00000000       1.50000000       2.00000000      -0.01591114      -0.01834074      -0.02373275      -0.00714980
2
Properties=species:S:1:pos:R:3:quaternions:R:4:old_torques:R:3:torques:R:3:c_diameter[1]:R:1:c_diameter[2]:R:1:c_diameter[3]:R:1:forces:R:3:energies:R:1 separation_distance=2.754268522395723 old_energy=-0.6149839387100201 distance=2.7542685245329355 gb_cutoff=5.0 gb_epsilon=1.0 gb_sigma=1.0 energy=-0.021432929161732676 pbc="F F F"
X       10.00000000      10.00000000      10.00000000       0.77491195       0.35300710       0.52430413       0.00162235      -0.02549234       0.00575516      -0.16314483      -0.01168072       0.01103173       0.01144221       1.00000000       1.50000000       2.00000000       0.07290906       0.08754097       0.04289646      -0.02143293
X       11.47453852      11.93666387      11.28882284       0.29709328       0.85862590      -0.39514387       0.13549344      -0.02224880      -0.03644198      -0.02373414      -0.01806805       0.01968264      -0.02356002       1.00000000       1.50000000       2.00000000      -0.07290906      -0.08754097      -0.04289646      -0.02143293
2
Properties=species:S:1:pos:R:3:quaternions:R:4:old_torques:R:3:torques:R:3:c_diameter[1]:R:1:c_diameter[2]:R:1:c_diameter[3]:R:1:forces:R:3:energies:R:1 separation_distance=2.88530833244598 old_energy=-0.15872316971618017 distance=2.8853083357746785 gb_cutoff=5.0 gb_epsilon=1.0 gb_sigma=1.0 energy=-0.01573893247420836 pbc="F F F"
X       10.00000000      10.00000000      10.00000000       0.90307863       0.26645077       0.33642728       0.01642140       0.00516871       0.03213974       0.05716013      -0.01879593       0.01833237       0.01260327       1.00000000       1.50000000       2.00000000       0.06425421       0.03540418       0.04193816      -0.01573893
X       11.86517502      11.30339776      11.77405767       0.12628419      -0.00890992      -0.76797414       0.62784443       0.06019995      -0.23237058       0.14699842       0.01064898       0.01743630      -0.03031707       1.00000000       1.50000000       2.00000000      -0.06425421      -0.03540418      -0.04193816      -0.01573893
2
Properties=species:S:1:pos:R:3:quaternions:R:4:old_torques:R:3:torques:R:3:c_diameter[1]:R:1:c_diameter[2]:R:1:c_diameter[3]:R:1:forces:R:3:energies:R:1 separation_distance=3.255259627592288 old_energy=-0.21989620406478616 distance=3.2552596292377443 gb_cutoff=5.0 gb_epsilon=1.0 gb_sigma=1.0 energy=-0.002854009775017806 pbc="F F F"
X       10.00000000      10.00000000      10.00000000       0.06941730      -0.10389912      -0.83275109      -0.53936243       0.08427062       0.14231502      -0.37312585       0.00103797       0.00158949      -0.00240231       1.00000000       1.50000000       2.00000000       0.00781819       0.00608038       0.00578718      -0.00285401
X       11.98064368      11.84648853      11.80672244       0.72660077       0.61759937       0.11821703       0.27685209       0.02397019      -0.73353668       0.01104120      -0.00133755       0.00107346       0.00000918       1.00000000       1.50000000       2.00000000      -0.00781819      -0.00608038      -0.00578718      -0.00285401
2
Properties=species:S:1:pos:R:3:quaternions:R:4:old_torques:R:3:torques:R:3:c_diameter[1]:R:1:c_diameter[2]:R:1:c_diameter[3]:R:1:forces:R:3:energies:R:1 separation_distance=2.960493314346242 old_energy=-0.15190386610241388 distance=2.9604933175179253 gb_cutoff=5.0 gb_epsilon=1.0 gb_sigma=1.0 energy=-0.006368755205776562 pbc="F F F"
X       10.00000000      10.00000000      10.00000000       0.34753664      -0.19439657       0.73825557       0.54443271      -0.06942174      -0.12072515      -0.21107968       0.00872415      -0.00494470      -0.00829863       1.00000000       1.50000000       2.00000000       0.02151267       0.01276349       0.01589695      -0.00636876
X       11.95214316      11.59821341      11.54899053       0.48681144       0.78210427       0.38815061       0.02581936      -0.00740835      -0.08491580       0.01343478      -0.00308797       0.00723452      -0.00116705       1.00000000       1.50000000       2.00000000      -0.02151267      -0.01276349      -0.01589695      -0.00636876
2
Properties=species:S:1:pos:R:3:quaternions:R:4:old_torques:R:3:torques:R:3:c_diameter[1]:R:1:c_diameter[2]:R:1:c_diameter[3]:R:1:forces:R:3:energies:R:1 separation_distance=2.794516577424243 old_energy=-0.3723371867529907 distance=2.7945165848897573 gb_cutoff=5.0 gb_epsilon=1.0 gb_sigma=1.0 energy=-0.015879622811477187 pbc="F F F"
X       10.00000000      10.00000000      10.00000000       0.15149510      -0.40245684       0.36727844       0.82473285       0.01141464       0.22215419      -0.20277225       0.01610410       0.00489257      -0.01674655       1.00000000       1.50000000       2.00000000       0.05323752       0.04146944       0.05271955      -0.01587962
X       11.79633511      11.42065989      11.60132089       0.46913109       0.63087466      -0.54144368      -0.29791260      -0.29870987       0.44915497       0.51394942      -0.00761343      -0.01434420       0.01560715       1.00000000       1.50000000       2.00000000      -0.05323752      -0.04146944      -0.05271955      -0.01587962
2
Properties=species:S:1:pos:R:3:quaternions:R:4:old_torques:R:3:torques:R:3:c_diameter[1]:R:1:c_diameter[2]:R:1:c_diameter[3]:R:1:forces:R:3:energies:R:1 separation_distance=2.647960578959598 old_energy=-0.6607792865050831 distance=2.6479605773609096 gb_cutoff=5.0 gb_epsilon=1.0 gb_sigma=1.0 energy=-0.00903279649193693 pbc="F F F"
X       10.00000000      10.00000000      10.00000000       0.02458115       0.97698690      -0.17323857       0.12198673       0.03768770       0.03445486      -0.30130294       0.00196737       0.00538328      -0.01018167       1.00000000       1.50000000       2.00000000       0.03645557       0.01914188       0.01599502      -0.00903280
X       11.94643136      11.46354574      11.03977596       0.67444727      -0.71674844      -0.17548637      -0.02443542      -0.09462274       0.19328191       0.23820080       0.00153880       0.00138914      -0.00591436       1.00000000       1.50000000       2.00000000      -0.03645557      -0.01914188      -0.01599502      -0.00903280
2
Properties=species:S:1:pos:R:3:quaternions:R:4:old_torques:R:3:torques:R:3:c_diameter[1]:R:1:c_diameter[2]:R:1:c_diameter[3]:R:1:forces:R:3:energies:R:1 separation_distance=2.9813965401743507 old_energy=-0.6825411734253285 distance=2.981396537102626 gb_cutoff=5.0 gb_epsilon=1.0 gb_sigma=1.0 energy=-0.006134582682851105 pbc="F F F"
X       10.00000000      10.00000000      10.00000000       0.24096451      -0.48848743       0.81674151       0.19039288      -0.19318278       0.27922172      -0.03818985       0.00139864      -0.00067860       0.00034274       1.00000000       1.50000000       2.00000000       0.01366425       0.01904232       0.01611586      -0.00613458
X       11.59842075      11.73591854      11.82218639       0.43235856       0.32743255      -0.81317901      -0.21117267       0.05989691      -0.07192725      -0.04908767      -0.00812148      -0.00018250       0.00637486       1.00000000       1.50000000       2.00000000      -0.01366425      -0.01904232      -0.01611586      -0.00613458
2
Properties=species:S:1:pos:R:3:quaternions:R:4:old_torques:R:3:torques:R:3:c_diameter[1]:R:1:c_diameter[2]:R:1:c_diameter[3]:R:1:forces:R:3:energies:R:1 separation_distance=2.773465186166179 old_energy=-0.2523180923473853 distance=2.773465188173183 gb_cutoff=5.0 gb_epsilon=1.0 gb_sigma=1.0 energy=-0.008296413254748601 pbc="F F F"
X       10.00000000      10.00000000      10.00000000       0.35857117      -0.28613181      -0.20795011       0.86389354       0.00022179      -0.24273479       0.06932845       0.00300962       0.00254067      -0.00245854       1.00000000       1.50000000       2.00000000       0.02394351       0.01935053       0.02561778      -0.00829641
X       11.66331088      11.47618651      11.65722040       0.40994058      -0.71254365      -0.47651047      -0.31171790       0.00957224      -0.04132888       0.36490756       0.00273891      -0.00547133      -0.00070060       1.00000000       1.50000000       2.00000000      -0.02394351      -0.01935053      -0.02561778      -0.00829641
2
Properties=species:S:1:pos:R:3:quaternions:R:4:old_torques:R:3:torques:R:3:c_diameter[1]:R:1:c_diameter[2]:R:1:c_diameter[3]:R:1:forces:R:3:energies:R:1 separation_distance=2.447089016045567 old_energy=-0.6687817335246294 distance=2.447089017918427 gb_cutoff=5.0 gb_epsilon=1.0 gb_sigma=1.0 energy=-0.03828138969170856 pbc="F F F"
X       10.00000000      10.00000000      10.00000000       0.56194859      -0.22867635       0.20621356       0.76772188       0.13564168       0.44542664      -0.57447872      -0.05093955       0.05168024      -0.01865145       1.00000000       1.50000000       2.00000000       0.13312580       0.17534155       0.09246306      -0.03828139
X       11.19448149      11.57749242      11.43978342       0.15860097       0.81276561       0.55234914       0.09575083       0.01357659       0.30968084       0.15100933      -0.05565454       0.02954667       0.01808874       1.00000000       1.50000000       2.00000000      -0.13312580      -0.17534155      -0.09246306      -0.03828139
2
Properties=species:S:1:pos:R:3:quaternions:R:4:old_torques:R:3:torques:R:3:c_diameter[1]:R:1:c_diameter[2]:R:1:c_diameter[3]:R:1:forces:R:3:energies:R:1 separation_distance=2.7432709655805025 old_energy=-0.23059788201092943 distance=2.7432709705156535 gb_cutoff=5.0 gb_epsilon=1.0 gb_sigma=1.0 energy=-0.009620814859883768 pbc="F F F"
X       10.00000000      10.00000000      10.00000000       0.26350462      -0.31287960       0.25636216       0.87575688       0.02051908       0.15501257      -0.06711136       0.00917120       0.00316922      -0.01207370       1.00000000       1.50000000       2.00000000       0.03525372       0.01837897       0.02563917      -0.00962081
X       11.98813440      11.15114486      11.49924072       0.17909952       0.75834289       0.57165856       0.25699400       0.01344679      -0.01535636       0.29315585      -0.00721130      -0.00128951       0.00803142       1.00000000       1.50000000       2.00000000      -0.03525372      -0.01837897      -0.02563917      -0.00962081
2
Properties=species:S:1:pos:R:3:quaternions:R:4:old_torques:R:3:torques:R:3:c_diameter[1]:R:1:c_diameter[2]:R:1:c_diameter[3]:R:1:forces:R:3:energies:R:1 separation_distance=2.593221513976494 old_energy=-0.659043308931919 distance=2.5932215116591997 gb_cutoff=5.0 gb_epsilon=1.0 gb_sigma=1.0 energy=-0.014157741314554361 pbc="F F F"
X       10.00000000      10.00000000      10.00000000       0.02175872      -0.51619551       0.79884588       0.30808118       0.07170082      -0.52328363       0.39962849      -0.01340799       0.00200745       0.00952513       1.00000000       1.50000000       2.00000000       0.04484188       0.04466061       0.03866096      -0.01415774
X       11.73874030      11.27868502      11.43754812       0.84373921       0.25803620       0.06698668      -0.46586935      -0.27375015      -0.97634946      -0.49091875      -0.00135860      -0.00476645       0.01078943       1.00000000       1.50000000       2.00000000      -0.04484188      -0.04466061      -0.03866096      -0.01415774
2
Properties=species:S:1:pos:R:3:quaternions:R:4:old_torques:R:3:torques:R:3:c_diameter[1]:R:1:c_diameter[2]:R:1:c_diameter[3]:R:1:forces:R:3:energies:R:1 separation_distance=2.814760173820815 old_energy=-0.4957009590255337 distance=2.8147601769623707 gb_cutoff=5.0 gb_epsilon=1.0 gb_sigma=1.0 energy=-0.022925600246768953 pbc="F F F"
X       10.00000000      10.00000000      10.00000000       0.73511717      -0.01365213       0.66023116       0.15333356      -0.41596689       0.85070807       0.61242075       0.02917771      -0.04300097       0.01624681       1.00000000       1.50000000       2.00000000       0.05228396       0.06501144       0.10400358      -0.02292560
X       11.60090337      11.54726904      11.72219098       0.70880614      -0.58181897       0.26185644      -0.30085170      -0.12282526       0.59662677       0.36348378       0.01978171      -0.03345575       0.00693286       1.00000000       1.50000000       2.00000000      -0.05228396      -0.06501144      -0.10400358      -0.02292560
2
Properties=species:S:1:pos:R:3:quaternions:R:4:old_torques:R:3:torques:R:3:c_diameter[1]:R:1:c_diameter[2]:R:1:c_diameter[3]:R:1:forces:R:3:energies:R:1 separation_distance=2.540385303120709 old_energy=-0.6502781839054806 distance=2.540385304312672 gb_cutoff=5.0 gb_epsilon=1.0 gb_sigma=1.0 energy=-0.03387673867867733 pbc="F F F"
X       10.00000000      10.00000000      10.00000000       0.65517374       0.32574057      -0.64526345       0.21971695      -0.01970215       1.05620717       0.03213357       0.07808425      -0.04932623       0.02480731       1.00000000       1.50000000       2.00000000       0.06236149       0.15115085       0.13083853      -0.03387674
X       11.27023626      11.69513256      11.40234908       0.21803014       0.71656768      -0.56377813      -0.34806298      -0.00216511       0.04775690       0.45060809      -0.06826185      -0.02941704       0.06147899       1.00000000       1.50000000       2.00000000      -0.06236149      -0.15115085      -0.13083853      -0.03387674
2
Properties=species:S:1:pos:R:3:quaternions:R:4:old_torques:R:3:torques:R:3:c_diameter[1]:R:1:c_diameter[2]:R:1:c_diameter[3]:R:1:forces:R:3:energies:R:1 separation_distance=2.7908315526119045 old_energy=-0.5341703296328046 distance=2.7908315529882963 gb_cutoff=5.0 gb_epsilon=1.0 gb_sigma=1.0 energy=-0.007506349333969129 pbc="F F F"
X       10.00000000      10.00000000      10.00000000       0.24174829      -0.65760819       0.44852269       0.55492038       0.07262621      -0.65941753       0.11133920       0.00585760      -0.00516042      -0.00010213       1.00000000       1.50000000       2.00000000       0.01494641       0.02206130       0.02329134      -0.00750635
X       11.46893233      11.83790582      11.50102657       0.32010002      -0.49362584      -0.72242694      -0.36327514       0.19662784      -0.23029038       0.71903397       0.00383509      -0.00661803       0.00503860       1.00000000       1.50000000       2.00000000      -0.01494641      -0.02206130      -0.02329134      -0.00750635
2
Properties=species:S:1:pos:R:3:quaternions:R:4:old_torques:R:3:torques:R:3:c_diameter[1]:R:1:c_diameter[2]:R:1:c_diameter[3]:R:1:forces:R:3:energies:R:1 separation_distance=2.705955253743623 old_energy=-0.607138548955654 distance=2.7059552511339255 gb_cutoff=5.0 gb_epsilon=1.0 gb_sigma=1.0 energy=-0.03716495745045384 pbc="F F F"
X       10.00000000      10.00000000      10.00000000       0.64344812      -0.08266242       0.14070091       0.74789351      -0.86906918      -3.46662400       1.73459243      -0.07509030       0.04499147       0.03208386       1.00000000       1.50000000       2.00000000       0.13762467       0.17519616       0.07505458      -0.03716496
X       11.69237426      11.44153263      11.54274005       0.29772764       0.69607619      -0.64902417      -0.07485872       0.49694722      -1.39523785      -2.10715426      -0.08699820       0.04030717       0.06602316       1.00000000       1.50000000       2.00000000      -0.13762467      -0.17519616      -0.07505458      -0.03716496
2
Properties=species:S:1:pos:R:3:quaternions:R:4:old_torques:R:3:torques:R:3:c_diameter[1]:R:1:c_diameter[2]:R:1:c_diameter[3]:R:1:forces:R:3:energies:R:1 separation_distance=3.1568682979595435 old_energy=-0.12056858291188187 distance=3.1568682987277614 gb_cutoff=5.0 gb_epsilon=1.0 gb_sigma=1.0 energy=-0.005301107716299798 pbc="F F F"
X       10.00000000      10.00000000      10.00000000       0.62259283       0.30867002       0.58504385       0.41812041       0.10922541      -0.16559519       0.15235413      -0.00334623      -0.00386841       0.00366849       1.00000000       1.50000000       2.00000000       0.00802354       0.01647665       0.01539837      -0.00530111
X       11.47256206      11.99453123      11.95428340       0.83463822       0.15494900       0.45597978      -0.26730562       0.00683154      -0.00701314      -0.05703319       0.00185872      -0.00312638       0.00459120       1.00000000       1.50000000       2.00000000      -0.00802354      -0.01647665      -0.01539837      -0.00530111
2
Properties=species:S:1:pos:R:3:quaternions:R:4:old_torques:R:3:torques:R:3:c_diameter[1]:R:1:c_diameter[2]:R:1:c_diameter[3]:R:1:forces:R:3:energies:R:1 separation_distance=3.0645783072398918 old_energy=-0.5718291295522562 distance=3.0645783051383377 gb_cutoff=5.0 gb_epsilon=1.0 gb_sigma=1.0 energy=-0.010282541147504829 pbc="F F F"
X       10.00000000      10.00000000      10.00000000       0.58815104      -0.71871850      -0.03759040      -0.36892959      -0.03551730       0.08675634      -0.06343476       0.01795003      -0.00409433      -0.01391934       1.00000000       1.50000000       2.00000000       0.03029277       0.02528955       0.03336355      -0.01028254
X       11.74641167      11.53258330      11.99821793       0.71813880       0.14411006       0.14646398       0.66487387       0.76962357       0.44977524      -0.16919073      -0.01735165       0.00635941       0.01165912       1.00000000       1.50000000       2.00000000      -0.03029277      -0.02528955      -0.03336355      -0.01028254
2
Properties=species:S:1:pos:R:3:quaternions:R:4:old_torques:R:3:torques:R:3:c_diameter[1]:R:1:c_diameter[2]:R:1:c_diameter[3]:R:1:forces:R:3:energies:R:1 separation_distance=2.9420151536189176 old_energy=-0.6953939587371164 distance=2.942015151109516 gb_cutoff=5.0 gb_epsilon=1.0 gb_sigma=1.0 energy=-0.02356633632652304 pbc="F F F"
X       10.00000000      10.00000000      10.00000000       0.05348934       0.50060248       0.44600687      -0.74000940      -0.43142616       0.46016625      -0.19106026       0.04954744      -0.03026139      -0.01549528       1.00000000       1.50000000       2.00000000       0.06936470       0.07626362       0.08889104      -0.02356634
X       11.65781325      11.95401203      11.44531843       0.45009994       0.30196901      -0.82143136       0.17741276       0.01324613      -0.03492122      -0.11043366       0.01392149      -0.01684926       0.00638667       1.00000000       1.50000000       2.00000000      -0.06936470      -0.07626362      -0.08889104      -0.02356634
2
Properties=species:S:1:pos:R:3:quaternions:R:4:old_torques:R:3:torques:R:3:c_diameter[1]:R:1:c_diameter[2]:R:1:c_diameter[3]:R:1:forces:R:3:energies:R:1 separation_distance=3.041369958156407 old_energy=-0.5680995945154783 distance=3.041369958825643 gb_cutoff=5.0 gb_epsilon=1.0 gb_sigma=1.0 energy=-0.005683220438476711 pbc="F F F"
X       10.00000000      10.00000000      10.00000000       0.57348255      -0.06890193       0.60882215      -0.54378845       0.54760989       0.89716964      -0.33699993      -0.00124800      -0.00363413       0.00534423       1.00000000       1.50000000       2.00000000       0.01586175       0.01577873       0.01276030      -0.00568322
X       11.79546980      11.92224428      11.52682558       0.64740948       0.72253222       0.20962957      -0.12191636      -0.13424350      -0.31613332      -0.46089794       0.00168505       0.00494152      -0.00750415       1.00000000       1.50000000       2.00000000      -0.01586175      -0.01577873      -0.01276030      -0.00568322
2
Properties=species:S:1:pos:R:3:quaternions:R:4:old_torques:R:3:torques:R:3:c_diameter[1]:R:1:c_diameter[2]:R:1:c_diameter[3]:R:1:forces:R:3:energies:R:1 separation_distance=3.016703512233809 old_energy=-0.6071307963787272 distance=3.016703507145149 gb_cutoff=5.0 gb_epsilon=1.0 gb_sigma=1.0 energy=-0.017628161806070068 pbc="F F F"
X       10.00000000      10.00000000      10.00000000       0.40177004      -0.67393464       0.01168279      -0.61988422       0.02696736       0.08641529       0.17232613       0.02509504      -0.02525404      -0.00453888       1.00000000       1.50000000       2.00000000       0.06050876       0.04212079       0.06165743      -0.01762816
X       11.95769740      11.38848887      11.82757205       0.07879326       0.94733523      -0.24760710      -0.18718524      -0.26375984       0.05235563       0.00651739      -0.01646316       0.01513156       0.00298290       1.00000000       1.50000000       2.00000000      -0.06050876      -0.04212079      -0.06165743      -0.01762816
2
Properties=species:S:1:pos:R:3:quaternions:R:4:old_torques:R:3:torques:R:3:c_diameter[1]:R:1:c_diameter[2]:R:1:c_diameter[3]:R:1:forces:R:3:energies:R:1 separation_distance=2.93968791802368 old_energy=-0.34250774184764715 distance=2.93968792277281 gb_cutoff=5.0 gb_epsilon=1.0 gb_sigma=1.0 energy=-0.0049143241571641474 pbc="F F F"
X       10.00000000      10.00000000      10.00000000       0.90916454       0.37962688       0.05064858      -0.16351755      -0.15425766      -0.72465123      -0.32652325       0.00033201       0.00211797      -0.00342068       1.00000000       1.50000000       2.00000000       0.01540200       0.01119087       0.01055543      -0.00491432
X       11.94793341      11.58381055      11.52933471       0.24043271       0.28607153      -0.31705761      -0.87168209      -0.15169330       0.31455125       0.52440088      -0.00072879       0.00087555       0.00082590       1.00000000       1.50000000       2.00000000      -0.01540200      -0.01119087      -0.01055543      -0.00491432
2
Properties=species:S:1:pos:R:3:quaternions:R:4:old_torques:R:3:torques:R:3:c_diameter[1]:R:1:c_diameter[2]:R:1:c_diameter[3]:R:1:forces:R:3:energies:R:1 separation_distance=3.0127077858254214 old_energy=-0.49851302343016524 distance=3.0127077853356723 gb_cutoff=5.0 gb_epsilon=1.0 gb_sigma=1.0 energy=-0.004505550979146476 pbc="F F F"
X       10.00000000      10.00000000      10.00000000       0.14790182       0.33688661       0.38611195      -0.84590190       0.26553945      -0.17651458       0.49127916       0.00534680      -0.00009078      -0.00290874       1.00000000       1.50000000       2.00000000       0.00928767       0.01166130       0.01292840      -0.00450555
X       11.63923567      11.81362314      11.76070603       0.69570712      -0.10558605       0.58330425      -0.40570844       0.17534867       0.87862655      -0.30783624      -0.00243167      -0.00474905       0.00518003       1.00000000       1.50000000       2.00000000      -0.00928767      -0.01166130      -0.01292840      -0.00450555
2
Properties=species:S:1:pos:R:3:quaternions:R:4:old_torques:R:3:torques:R:3:c_diameter[1]:R:1:c_diameter[2]:R:1:c_diameter[3]:R:1:forces:R:3:energies:R:1 separation_distance=2.772919162237253 old_energy=-0.5046525509660008 distance=2.7729191654666074 gb_cutoff=5.0 gb_epsilon=1.0 gb_sigma=1.0 energy=-0.02270005851165131 pbc="F F F"
X       10.00000000      10.00000000      10.00000000       0.62567146       0.58224649       0.51650716       0.05238899      -0.06365383       0.84374677       0.16560573      -0.01710458       0.01043263       0.01322108       1.00000000       1.50000000       2.00000000       0.09875881       0.06523134       0.05263455      -0.02270006
X       11.97696752      11.48249857      11.25812484       0.79772068      -0.52477238       0.28501412      -0.08380102      -0.39285431       1.25496411       0.45873857       0.01306605       0.00976148      -0.03067062       1.00000000       1.50000000       2.00000000      -0.09875881      -0.06523134      -0.05263455      -0.02270006
2
Properties=species:S:1:pos:R:3:quaternions:R:4:old_torques:R:3:torques:R:3:c_diameter[1]:R:1:c_diameter[2]:R:1:c_diameter[3]:R:1:forces:R:3:energies:R:1 separation_distance=2.57443337791261 old_energy=-0.632117259697585 distance=2.5744333780795428 gb_cutoff=5.0 gb_epsilon=1.0 gb_sigma=1.0 energy=-0.02122551393348937 pbc="F F F"
X       10.00000000      10.00000000      10.00000000       0.03233972       0.99630332       0.06920078       0.03930773      -0.58301194      -3.60529013       1.70893569      -0.01546975       0.03470446      -0.02205575       1.00000000       1.50000000       2.00000000       0.08316896       0.06698556       0.05360261      -0.02122551
X       11.59490061      11.67528368      11.13023177       0.26172231      -0.86189150       0.15119786      -0.40716543       0.09190517       0.22456226       2.57564329       0.02956013      -0.02619510      -0.01044055       1.00000000       1.50000000       2.00000000      -0.08316896      -0.06698556      -0.05360261      -0.02122551
2
Properties=species:S:1:pos:R:3:quaternions:R:4:old_torques:R:3:torques:R:3:c_diameter[1]:R:1:c_diameter[2]:R:1:c_diameter[3]:R:1:forces:R:3:energies:R:1 separation_distance=3.044325517622636 old_energy=-0.48520856164937287 distance=3.044325517884109 gb_cutoff=5.0 gb_epsilon=1.0 gb_sigma=1.0 energy=-0.007740038593834641 pbc="F F F"
X       10.00000000      10.00000000      10.00000000       0.64843403      -0.08848323       0.30172860      -0.69329927      -0.06625760      -0.19270309      -0.42545722      -0.01031388       0.00070777       0.00801059       1.00000000       1.50000000       2.00000000       0.01722553       0.02672375       0.01982180      -0.00774004
X       11.84702044      11.79067871      11.62785230       0.07321008      -0.57964842      -0.07474764      -0.80812176      -0.58258057      -0.99183184      -0.48555487       0.00230604      -0.00927842       0.01050333       1.00000000       1.50000000       2.00000000      -0.01722553      -0.02672375      -0.01982180      -0.00774004
2
Properties=species:S:1:pos:R:3:quaternions:R:4:old_torques:R:3:torques:R:3:c_diameter[1]:R:1:c_diameter[2]:R:1:c_diameter[3]:R:1:forces:R:3:energies:R:1 separation_distance=2.6463014507775293 old_energy=-0.6183109271088456 distance=2.64630145028993 gb_cutoff=5.0 gb_epsilon=1.0 gb_sigma=1.0 energy=-0.024142742967265835 pbc="F F F"
X       10.00000000      10.00000000      10.00000000       0.60301640      -0.41551051       0.54894370      -0.40296780       0.19960632       1.51985501      -0.23665974      -0.02637334      -0.02335393       0.02553835       1.00000000       1.50000000       2.00000000       0.04125033       0.08790895       0.10139621      -0.02414274
X       11.31252795      11.47042169      11.76579778       0.55281780       0.25898330      -0.79158439       0.02672620      -0.00102465       0.11065771       0.29571881       0.02023909      -0.03689168       0.02918922       1.00000000       1.50000000       2.00000000      -0.04125033      -0.08790895      -0.10139621      -0.02414274
2
Properties=species:S:1:pos:R:3:quaternions:R:4:old_torques:R:3:torques:R:3:c_diameter[1]:R:1:c_diameter[2]:R:1:c_diameter[3]:R:1:forces:R:3:energies:R:1 separation_distance=2.9404034866562827 old_energy=-0.46187369084287566 distance=2.9404034797020366 gb_cutoff=5.0 gb_epsilon=1.0 gb_sigma=1.0 energy=-0.01663286606082199 pbc="F F F"
X       10.00000000      10.00000000      10.00000000       0.42266832      -0.38840820       0.29074800       0.76547774       0.00921902       0.20461002      -0.32200862       0.02099521       0.00200870      -0.02316156       1.00000000       1.50000000       2.00000000       0.05709007       0.03642556       0.05933634      -0.01663287
X       11.93462595      11.52156805      11.60873420       0.21043956      -0.56025276      -0.01311193      -0.80103690      -0.59605581      -0.91331827      -0.53118400       0.01069001      -0.02495958       0.00676498       1.00000000       1.50000000       2.00000000      -0.05709007      -0.03642556      -0.05933634      -0.01663287
2
Properties=species:S:1:pos:R:3:quaternions:R:4:old_torques:R:3:torques:R:3:c_diameter[1]:R:1:c_diameter[2]:R:1:c_diameter[3]:R:1:forces:R:3:energies:R:1 separation_distance=2.9909600230000906 old_energy=-0.4402310380565222 distance=2.990960022800463 gb_cutoff=5.0 gb_epsilon=1.0 gb_sigma=1.0 energy=-0.013943990930645382 pbc="F F F"
X       10.00000000      10.00000000      10.00000000       0.00392620      -0.82742135       0.48396399       0.28484618       0.22813612      -0.64159009       0.45588915      -0.01521646      -0.00728716       0.02007307       1.00000000       1.50000000       2.00000000       0.02591248       0.05311408       0.04413775      -0.01394399
X       11.28387697      11.96386982      11.85491701       0.74446928      -0.29574024       0.37634093       0.46547900       0.04496240       0.03628399      -0.57167152       0.00337504      -0.00131478      -0.00276986       1.00000000       1.50000000       2.00000000      -0.02591248      -0.05311408      -0.04413775      -0.01394399
2
Properties=species:S:1:pos:R:3:quaternions:R:4:old_torques:R:3:torques:R:3:c_diameter[1]:R:1:c_diameter[2]:R:1:c_diameter[3]:R:1:forces:R:3:energies:R:1 separation_distance=2.5229912075252816 old_energy=-0.7605633219334674 distance=2.522991207383161 gb_cutoff=5.0 gb_epsilon=1.0 gb_sigma=1.0 energy=-0.020740226147899395 pbc="F F F"
X       10.00000000      10.00000000      10.00000000       0.20200724       0.16660086      -0.77676689       0.57277433       0.02324661       0.27779278      -0.56863954       0.00848651       0.02400545      -0.03843659       1.00000000       1.50000000       2.00000000       0.08761428       0.05935817       0.05031434      -0.02074023
X       11.76872404      11.47992642      11.02318996       0.24207609       0.38313093      -0.17418571      -0.87422491      -0.01500532      -0.08130225      -0.99100783       0.00524032      -0.02335158       0.01376213       1.00000000       1.50000000       2.00000000      -0.08761428      -0.05935817      -0.05031434      -0.02074023
2
Properties=species:S:1:pos:R:3:quaternions:R:4:old_torques:R:3:torques:R:3:c_diameter[1]:R:1:c_diameter[2]:R:1:c_diameter[3]:R:1:forces:R:3:energies:R:1 separation_distance=2.7519170246356603 old_energy=-0.7399451289274529 distance=2.7519170296308215 gb_cutoff=5.0 gb_epsilon=1.0 gb_sigma=1.0 energy=-0.006043705698880666 pbc="F F F"
X       10.00000000      10.00000000      10.00000000       0.26285812      -0.45068921       0.83038725       0.19555526       0.00579627       4.89696069       0.12831535       0.00200047      -0.00307747       0.00131028       1.00000000       1.50000000       2.00000000       0.01781102       0.01483041       0.01431155      -0.00604371
X       11.88878914      11.30691221      11.51575176       0.18169067      -0.85291152      -0.48522982      -0.06389419       0.01294927      -0.66786000      -0.46043286      -0.00577575       0.00304305       0.00342381       1.00000000       1.50000000       2.00000000      -0.01781102      -0.01483041      -0.01431155      -0.00604371
2
Properties=species:S:1:pos:R:3:quaternions:R:4:old_torques:R:3:torques:R:3:c_diameter[1]:R:1:c_diameter[2]:R:1:c_diameter[3]:R:1:forces:R:3:energies:R:1 separation_distance=3.0666336200200766 old_energy=-0.31516650284092457 distance=3.066633617255572 gb_cutoff=5.0 gb_epsilon=1.0 gb_sigma=1.0 energy=-0.0071046676669273895 pbc="F F F"
X       10.00000000      10.00000000      10.00000000       0.64907305      -0.39440232       0.45541192       0.46449001      -0.37064189      -0.23777147      -0.29763573       0.01176415      -0.00476619      -0.00677804       1.00000000       1.50000000       2.00000000       0.02045860       0.01270374       0.02377164      -0.00710467
X       11.96816116      11.36111136      11.91780063       0.64184182      -0.21812562      -0.39231079       0.62173350       0.01900701       0.09835374      -0.26641199      -0.00377154      -0.00278471       0.00393461       1.00000000       1.50000000       2.00000000      -0.02045860      -0.01270374      -0.02377164      -0.00710467
2
Properties=species:S:1:pos:R:3:quaternions:R:4:old_torques:R:3:torques:R:3:c_diameter[1]:R:1:c_diameter[2]:R:1:c_diameter[3]:R:1:forces:R:3:energies:R:1 separation_distance=2.690464042534073 old_energy=-0.4282004727125641 distance=2.6904640460394713 gb_cutoff=5.0 gb_epsilon=1.0 gb_sigma=1.0 energy=-0.011151166897843215 pbc="F F F"
X       10.00000000      10.00000000      10.00000000       0.37524776      -0.08562909      -0.03696620       0.92222030      -0.00224293      -0.25618243      -0.00738080      -0.00234806       0.00411597      -0.00339700       1.00000000       1.50000000       2.00000000       0.03928466       0.03454806       0.01974941      -0.01115117
X       11.82642253      11.61617049      11.13612080       0.10865785      -0.40345554       0.90790203      -0.03363035       0.05343848      -1.23679953       0.08742888      -0.00498430       0.00444539       0.00300565       1.00000000       1.50000000       2.00000000      -0.03928466      -0.03454806      -0.01974941      -0.01115117
2
Properties=species:S:1:pos:R:3:quaternions:R:4:old_torques:R:3:torques:R:3:c_diameter[1]:R:1:c_diameter[2]:R:1:c_diameter[3]:R:1:forces:R:3:energies:R:1 separation_distance=2.7699517884385716 old_energy=-0.3007263135142939 distance=2.769951787621197 gb_cutoff=5.0 gb_epsilon=1.0 gb_sigma=1.0 energy=-0.009992006341651568 pbc="F F F"
X       10.00000000      10.00000000      10.00000000       0.14120313      -0.06193212       0.14358970       0.97755209       1.09370529      -4.79672427      -3.99125275      -0.00340669       0.01369197      -0.01380366       1.00000000       1.50000000       2.00000000       0.03465953       0.02843219       0.02218098      -0.00999201
X       11.64594040      11.83337467      11.26580031       0.84005887      -0.28937917      -0.44857018      -0.09667254      -3.62279486       5.53634824      -4.44112107       0.00808325      -0.00632849      -0.00294255       1.00000000       1.50000000       2.00000000      -0.03465953      -0.02843219      -0.02218098      -0.00999201
2
Properties=species:S:1:pos:R:3:quaternions:R:4:old_torques:R:3:torques:R:3:c_diameter[1]:R:1:c_diameter[2]:R:1:c_diameter[3]:R:1:forces:R:3:energies:R:1 separation_distance=2.9615178718572057 old_energy=-0.25601631632741134 distance=2.9615178643796765 gb_cutoff=5.0 gb_epsilon=1.0 gb_sigma=1.0 energy=-0.010738578807731441 pbc="F F F"
X       10.00000000      10.00000000      10.00000000       0.79626427      -0.22058047      -0.02014753      -0.56294009       0.01461609      -0.64878478       0.06822012      -0.01566964       0.00802320       0.00310961       1.00000000       1.50000000       2.00000000       0.02803408       0.03562361       0.03081125      -0.01073858
X       11.70349473      11.62324084      11.79827221       0.00751823      -0.72326352       0.36788671       0.58437378       0.11140834      -0.28280972       0.36941767       0.00162278      -0.01009709       0.01206895       1.00000000       1.50000000       2.00000000      -0.02803408      -0.03562361      -0.03081125      -0.01073858
2
Properties=species:S:1:pos:R:3:quaternions:R:4:old_torques:R:3:torques:R:3:c_diameter[1]:R:1:c_diameter[2]:R:1:c_diameter[3]:R:1:forces:R:3:energies:R:1 separation_distance=2.842365744183383 old_energy=-0.3380142480533968 distance=2.8423657449036033 gb_cutoff=5.0 gb_epsilon=1.0 gb_sigma=1.0 energy=-0.009402892624359253 pbc="F F F"
X       10.00000000      10.00000000      10.00000000       0.37922750       0.57583991      -0.71099147      -0.13815221       0.00485694      -0.01354859       0.43573008      -0.01967084       0.00329979       0.01392576       1.00000000       1.50000000       2.00000000       0.01943849       0.03736112       0.02035254      -0.00940289
X       11.22532951      11.97691640      11.63383358       0.25365661       0.40202756      -0.57066229      -0.66960938      -0.06086269       1.01744068       0.05359982      -0.00113574       0.00352089      -0.00657434       1.00000000       1.50000000       2.00000000      -0.01943849      -0.03736112      -0.02035254      -0.00940289
2
Properties=species:S:1:pos:R:3:quaternions:R:4:old_torques:R:3:torques:R:3:c_diameter[1]:R:1:c_diameter[2]:R:1:c_diameter[3]:R:1:forces:R:3:energies:R:1 separation_distance=2.8521607561009557 old_energy=-0.6229504675943746 distance=2.8521607595907787 gb_cutoff=5.0 gb_epsilon=1.0 gb_sigma=1.0 energy=-0.010080208552666926 pbc="F F F"
X       10.00000000      10.00000000      10.00000000       0.65283741       0.12513761       0.45608948      -0.59171470      -0.02236334       0.04187169       0.08440955      -0.00025087      -0.00646560       0.00861554       1.00000000       1.50000000       2.00000000       0.02766989       0.03048601       0.02949704      -0.01008021
X       11.33550325      11.65619951      11.89954080       0.89931912      -0.34421084       0.06141082       0.26262658       0.00591152       0.06786406      -0.02312091      -0.00880558       0.01963229      -0.01372823       1.00000000       1.50000000       2.00000000      -0.02766989      -0.03048601      -0.02949704      -0.01008021
2
Properties=species:S:1:pos:R:3:quaternions:R:4:old_torques:R:3:torques:R:3:c_diameter[1]:R:1:c_diameter[2]:R:1:c_diameter[3]:R:1:forces:R:3:energies:R:1 separation_distance=2.6068520456351147 old_energy=-0.7179941053913412 distance=2.6068520420058894 gb_cutoff=5.0 gb_epsilon=1.0 gb_sigma=1.0 energy=-0.017228901225103628 pbc="F F F"
X       10.00000000      10.00000000      10.00000000       0.33340537       0.07868202      -0.52400639       0.77978670      -0.06244692       0.18646544       0.07814096       0.00198338      -0.00404919      -0.00429961       1.00000000       1.50000000       2.00000000       0.05758298       0.03407780       0.06653565      -0.01722890
X       11.60375228      11.16828915      11.69078581       0.09696104      -0.84987535       0.23236587      -0.46294335       0.04437987      -0.00794439      -0.12273828       0.01813125      -0.00529704      -0.00832161       1.00000000       1.50000000       2.00000000      -0.05758298      -0.03407780      -0.06653565      -0.01722890
2
Properties=species:S:1:pos:R:3:quaternions:R:4:old_torques:R:3:torques:R:3:c_diameter[1]:R:1:c_diameter[2]:R:1:c_diameter[3]:R:1:forces:R:3:energies:R:1 separation_distance=2.9449669535802454 old_energy=-0.6131501007755408 distance=2.944966953395036 gb_cutoff=5.0 gb_epsilon=1.0 gb_sigma=1.0 energy=-0.016488883502145158 pbc="F F F"
X       10.00000000      10.00000000      10.00000000       0.19795303      -0.19159092      -0.74753680       0.60439743      -0.07740780      -0.31451479      -0.02183485       0.01806337       0.00681821      -0.04165027       1.00000000       1.50000000       2.00000000       0.07643519       0.03320940       0.04081407      -0.01648888
X       11.84616748      11.88225949      11.31209573       0.46803256       0.85178848      -0.22359892       0.07352164      -0.25226656      -0.21589744      -0.31731340       0.01518538       0.01812247      -0.04091048       1.00000000       1.50000000       2.00000000      -0.07643519      -0.03320940      -0.04081407      -0.01648888
2
Properties=species:S:1:pos:R:3:quaternions:R:4:old_torques:R:3:torques:R:3:c_diameter[1]:R:1:c_diameter[2]:R:1:c_diameter[3]:R:1:forces:R:3:energies:R:1 separation_distance=2.775616598817689 old_energy=-0.6750078803433472 distance=2.7756166010532763 gb_cutoff=5.0 gb_epsilon=1.0 gb_sigma=1.0 energy=-0.006011828327845917 pbc="F F F"
X       10.00000000      10.00000000      10.00000000       0.09835458      -0.93725864      -0.06934807      -0.32720553       0.01184840      -0.26214917       0.11556418       0.00170426       0.00519736      -0.00351720       1.00000000       1.50000000       2.00000000       0.01343129       0.01344329       0.01946794      -0.00601183
X       11.31148814      11.49782479      11.93405462       0.52343382       0.39376773       0.30121756      -0.69298773      -0.04313424       0.00539460       0.03471556       0.00145525      -0.00475249       0.00103019       1.00000000       1.50000000       2.00000000      -0.01343129      -0.01344329      -0.01946794      -0.00601183
2
Properties=species:S:1:pos:R:3:quaternions:R:4:old_torques:R:3:torques:R:3:c_diameter[1]:R:1:c_diameter[2]:R:1:c_diameter[3]:R:1:forces:R:3:energies:R:1 separation_distance=2.7629681384419866 old_energy=-0.609062912370696 distance=2.76296814346193 gb_cutoff=5.0 gb_epsilon=1.0 gb_sigma=1.0 energy=-0.020412069302205512 pbc="F F F"
X       10.00000000      10.00000000      10.00000000       0.42490737       0.61564571       0.60820870      -0.26554899      -0.01376040       1.40780289       0.08941288       0.00465543       0.01571240      -0.01999156       1.00000000       1.50000000       2.00000000       0.08510047       0.05980419       0.04768416      -0.02041207
X       11.74046842      11.44675913      11.58481881       0.23027411       0.80723472       0.53620789      -0.08847060       0.03931120       0.90631825      -0.20049341      -0.03044675       0.03616366       0.00095898       1.00000000       1.50000000       2.00000000      -0.08510047      -0.05980419      -0.04768416      -0.02041207
2
Properties=species:S:1:pos:R:3:quaternions:R:4:old_torques:R:3:torques:R:3:c_diameter[1]:R:1:c_diameter[2]:R:1:c_diameter[3]:R:1:forces:R:3:energies:R:1 separation_distance=3.0142388961660433 old_energy=-0.24969262552726754 distance=3.0142388972595646 gb_cutoff=5.0 gb_epsilon=1.0 gb_sigma=1.0 energy=-0.011520778879003673 pbc="F F F"
X       10.00000000      10.00000000      10.00000000       0.74930601      -0.47785381       0.40794576      -0.20922834      -0.09445762       0.53678831       0.23690957       0.00396255      -0.02269689       0.01509071       1.00000000       1.50000000       2.00000000       0.02422748       0.03443526       0.04322762      -0.01152078
X       11.88857675      11.63342040      11.68844656       0.76415418       0.03200618       0.64399279      -0.01781230      -0.09934790       0.63139627       0.16039842       0.00850423      -0.01803498       0.01036925       1.00000000       1.50000000       2.00000000      -0.02422748      -0.03443526      -0.04322762      -0.01152078
2
Properties=species:S:1:pos:R:3:quaternions:R:4:old_torques:R:3:torques:R:3:c_diameter[1]:R:1:c_diameter[2]:R:1:c_diameter[3]:R:1:forces:R:3:energies:R:1 separation_distance=2.7778262436553507 old_energy=-0.6953830763864183 distance=2.777826239385474 gb_cutoff=5.0 gb_epsilon=1.0 gb_sigma=1.0 energy=-0.010264242477513612 pbc="F F F"
X       10.00000000      10.00000000      10.00000000       0.04154810      -0.73225348      -0.04299275       0.67840269       0.20619935      -0.26606609       0.24911779       0.01226123      -0.01196483       0.00330810       1.00000000       1.50000000       2.00000000       0.01468171       0.02798605       0.04065343      -0.01026424
X       11.24419418      11.74240963      11.76983280       0.64290138      -0.06392905      -0.76211589      -0.04207442       0.04500217       0.08373222      -0.28587463       0.00904308      -0.01263177       0.00593043       1.00000000       1.50000000       2.00000000      -0.01468171      -0.02798605      -0.04065343      -0.01026424
2
Properties=species:S:1:pos:R:3:quaternions:R:4:old_torques:R:3:torques:R:3:c_diameter[1]:R:1:c_diameter[2]:R:1:c_diameter[3]:R:1:forces:R:3:energies:R:1 separation_distance=2.720992128629706 old_energy=-0.6250431195497513 distance=2.720992132267051 gb_cutoff=5.0 gb_epsilon=1.0 gb_sigma=1.0 energy=-0.009421556830249457 pbc="F F F"
X       10.00000000      10.00000000      10.00000000       0.09336734       0.03066133      -0.49903950      -0.86098897      -0.42700258      -8.67741050       1.12198060      -0.00223330       0.01179439      -0.01250385       1.00000000       1.50000000       2.00000000       0.03743849       0.02142033       0.01741616      -0.00942156
X       11.79632606      11.46826796      11.42168916       0.19766298       0.02210415      -0.70910528      -0.67646911      -0.29992926      -8.08770055       0.97994577      -0.00264817       0.01014641      -0.00398799       1.00000000       1.50000000       2.00000000      -0.03743849      -0.02142033      -0.01741616      -0.00942156
2
Properties=species:S:1:pos:R:3:quaternions:R:4:old_torques:R:3:torques:R:3:c_diameter[1]:R:1:c_diameter[2]:R:1:c_diameter[3]:R:1:forces:R:3:energies:R:1 separation_distance=3.0894427372000797 old_energy=-0.37246563138328886 distance=3.089442734703478 gb_cutoff=5.0 gb_epsilon=1.0 gb_sigma=1.0 energy=-0.006314114948232144 pbc="F F F"
X       10.00000000      10.00000000      10.00000000       0.03558724      -0.39638018       0.54868859      -0.73522591       0.07150210      -0.13068898      -2.83914547      -0.00488206       0.00486395      -0.00000860       1.00000000       1.50000000       2.00000000       0.02113122       0.01667852       0.01231322      -0.00631411
X       11.83707642      11.61719781      11.88533230       0.04562639      -0.12433047      -0.02300274      -0.99092434       2.24518130      -5.38971708      -2.33437208      -0.00664959       0.01235510      -0.00352504       1.00000000       1.50000000       2.00000000      -0.02113122      -0.01667852      -0.01231322      -0.00631411
2
Properties=species:S:1:pos:R:3:quaternions:R:4:old_torques:R:3:torques:R:3:c_diameter[1]:R:1:c_diameter[2]:R:1:c_diameter[3]:R:1:forces:R:3:energies:R:1 separation_distance=2.795872424509661 old_energy=-0.6297503061590273 distance=2.795872426958338 gb_cutoff=5.0 gb_epsilon=1.0 gb_sigma=1.0 energy=-0.021195905185855263 pbc="F F F"
X       10.00000000      10.00000000      10.00000000       0.60189316      -0.42647021       0.11094070       0.66598794       0.32599851       1.55998079       1.05756024       0.00101472       0.01570925      -0.01002237       1.00000000       1.50000000       2.00000000       0.08035762       0.05981250       0.06170392      -0.02119591
X       11.61095539      11.44315235      11.77173267       0.12608687       0.66272616      -0.68789245       0.26776878      -0.69509838       1.47786753      -1.11284578      -0.01793832       0.02726070      -0.00959066       1.00000000       1.50000000       2.00000000      -0.08035762      -0.05981250      -0.06170392      -0.02119591
2
Properties=species:S:1:pos:R:3:quaternions:R:4:old_torques:R:3:torques:R:3:c_diameter[1]:R:1:c_diameter[2]:R:1:c_diameter[3]:R:1:forces:R:3:energies:R:1 separation_distance=2.5766810365136212 old_energy=-0.7430787349441235 distance=2.5766810343915463 gb_cutoff=5.0 gb_epsilon=1.0 gb_sigma=1.0 energy=-0.011350984925669817 pbc="F F F"
X       10.00000000      10.00000000      10.00000000       0.62229047       0.19368723       0.33765624      -0.67913776       0.06991363       0.16957406       1.04328389      -0.00324171      -0.00312856       0.00521637       1.00000000       1.50000000       2.00000000       0.02497222       0.03218193       0.04042475      -0.01135098
X       11.46843154      11.10083507      11.80863377       0.74962627       0.04166130       0.41571147      -0.51333105      -0.01624957      -0.35518297       0.51396386      -0.01046263      -0.01106683       0.01455031       1.00000000       1.50000000       2.00000000      -0.02497222      -0.03218193      -0.04042475      -0.01135098
2
Properties=species:S:1:pos:R:3:quaternions:R:4:old_torques:R:3:torques:R:3:c_diameter[1]:R:1:c_diameter[2]:R:1:c_diameter[3]:R:1:forces:R:3:energies:R:1 separation_distance=2.8269074369425544 old_energy=-0.7076005944671001 distance=2.8269074352466843 gb_cutoff=5.0 gb_epsilon=1.0 gb_sigma=1.0 energy=-0.014438622385638622 pbc="F F F"
X       10.00000000      10.00000000      10.00000000       0.01326749       0.10653041      -0.67284215      -0.73195538      -0.02368354      -2.20752096       0.30248274       0.00341184       0.01293824      -0.01743663       1.00000000       1.50000000       2.00000000       0.05936664       0.03235998       0.03987064      -0.01443862
X       11.56801181      11.58574727      11.73728242       0.27242745       0.05364860       0.30232061       0.91187025      -0.37623292      -3.56812452       0.80293615       0.00359448       0.02768076      -0.02596302       1.00000000       1.50000000       2.00000000      -0.05936664      -0.03235998      -0.03987064      -0.01443862
2
Properties=species:S:1:pos:R:3:quaternions:R:4:old_torques:R:3:torques:R:3:c_diameter[1]:R:1:c_diameter[2]:R:1:c_diameter[3]:R:1:forces:R:3:energies:R:1 separation_distance=2.8294050635351717 old_energy=-0.6746138702467975 distance=2.829405065479387 gb_cutoff=5.0 gb_epsilon=1.0 gb_sigma=1.0 energy=-0.018765792364539433 pbc="F F F"
X       10.00000000      10.00000000      10.00000000       0.43125311       0.13251784      -0.43805062       0.77754191       0.05521171      -0.37017495      -0.22233429       0.00021648      -0.00960468       0.01058415       1.00000000       1.50000000       2.00000000       0.06100336       0.04442807       0.07117514      -0.01876579
X       11.92686141      11.35870614      11.56417894       0.35099084       0.73187971       0.26940806      -0.51824397      -0.67450212      -1.17089229       0.67663568       0.02699618      -0.03211978      -0.00786307       1.00000000       1.50000000       2.00000000      -0.06100336      -0.04442807      -0.07117514      -0.01876579
2
Properties=species:S:1:pos:R:3:quaternions:R:4:old_torques:R:3:torques:R:3:c_diameter[1]:R:1:c_diameter[2]:R:1:c_diameter[3]:R:1:forces:R:3:energies:R:1 separation_distance=3.1121680155678595 old_energy=-0.2977960811552636 distance=3.1121680178191418 gb_cutoff=5.0 gb_epsilon=1.0 gb_sigma=1.0 energy=-0.00507808345434395 pbc="F F F"
X       10.00000000      10.00000000      10.00000000       0.72273131       0.18763525       0.17704826      -0.64117578      -0.24620119      -0.50209343      -0.35921713      -0.00305440      -0.00110308       0.00384641       1.00000000       1.50000000       2.00000000       0.00952340       0.01573268       0.01359003      -0.00507808
X       11.71146246      11.90186239      11.77183675       0.58765778       0.06325578      -0.80449629      -0.05867509       0.29247899       0.54495041      -0.35132213       0.00102503      -0.00528183       0.00496728       1.00000000       1.50000000       2.00000000      -0.00952340      -0.01573268      -0.01359003      -0.00507808
2
Properties=species:S:1:pos:R:3:quaternions:R:4:old_torques:R:3:torques:R:3:c_diameter[1]:R:1:c_diameter[2]:R:1:c_diameter[3]:R:1:forces:R:3:energies:R:1 separation_distance=3.1484977783683092 old_energy=-0.34408442690684227 distance=3.1484977782329717 gb_cutoff=5.0 gb_epsilon=1.0 gb_sigma=1.0 energy=-0.005093601047215886 pbc="F F F"
X       10.00000000      10.00000000      10.00000000       0.45883932       0.51890320      -0.29336417       0.65889559       3.54838293      -3.89014014      -1.51215945       0.00576515      -0.00294088      -0.00002825       1.00000000       1.50000000       2.00000000       0.00934154       0.01426175       0.01505635      -0.00509360
X       11.76914891      11.95187465      11.72433632       0.47480542      -0.18337574      -0.86045184       0.02357513       0.64682709       0.58025150       2.34507294      -0.00096910      -0.00758808       0.00702588       1.00000000       1.50000000       2.00000000      -0.00934154      -0.01426175      -0.01505635      -0.00509360
2
Properties=species:S:1:pos:R:3:quaternions:R:4:old_torques:R:3:torques:R:3:c_diameter[1]:R:1:c_diameter[2]:R:1:c_diameter[3]:R:1:forces:R:3:energies:R:1 separation_distance=3.099509887620233 old_energy=-0.595620250795454 distance=3.0995098933792558 gb_cutoff=5.0 gb_epsilon=1.0 gb_sigma=1.0 energy=-0.005259581171892516 pbc="F F F"
X       10.00000000      10.00000000      10.00000000       0.26172333       0.39838436       0.87547206       0.07962083      -0.14294505       0.16004475       0.29397251      -0.00258852       0.00207158       0.00045607       1.00000000       1.50000000       2.00000000       0.00992489       0.01734675       0.01227855      -0.00525958
X       11.36903939      11.99641230      11.93572484       0.11174510      -0.67317467       0.73098674       0.00269862       0.12767679      -0.11007861       0.07070814      -0.00647698       0.00033046       0.00347813       1.00000000       1.50000000       2.00000000      -0.00992489      -0.01734675      -0.01227855      -0.00525958
2
Properties=species:S:1:pos:R:3:quaternions:R:4:old_torques:R:3:torques:R:3:c_diameter[1]:R:1:c_diameter[2]:R:1:c_diameter[3]:R:1:forces:R:3:energies:R:1 separation_distance=2.8328638090156177 old_energy=-0.48248113843412377 distance=2.8328638083160778 gb_cutoff=5.0 gb_epsilon=1.0 gb_sigma=1.0 energy=-0.01597763322224975 pbc="F F F"
X       10.00000000      10.00000000      10.00000000       0.81719945      -0.21015532       0.39024687      -0.36841170       0.00242394       0.32172528      -0.06862675      -0.02070443      -0.02918946       0.03593034       1.00000000       1.50000000       2.00000000       0.02690257       0.06129088       0.06005504      -0.01597763
X       11.75564958      11.50813374      11.63350682       0.44300969       0.69793541      -0.11394944      -0.55103911       0.01056334      -0.01801095       0.33994524       0.01115639      -0.03230063       0.03110230       1.00000000       1.50000000       2.00000000      -0.02690257      -0.06129088      -0.06005504      -0.01597763
2
Properties=species:S:1:pos:R:3:quaternions:R:4:old_torques:R:3:torques:R:3:c_diameter[1]:R:1:c_diameter[2]:R:1:c_diameter[3]:R:1:forces:R:3:energies:R:1 separation_distance=2.8458533011608376 old_energy=-0.6022323102246673 distance=2.845853297802884 gb_cutoff=5.0 gb_epsilon=1.0 gb_sigma=1.0 energy=-0.008883520526238664 pbc="F F F"
X       10.00000000      10.00000000      10.00000000       0.14284386       0.25782215      -0.78644937      -0.54278980      -0.14980553      -2.36048156       0.28399754      -0.00122104       0.00249858      -0.00726353       1.00000000       1.50000000       2.00000000       0.02728392       0.03085633       0.01472789      -0.00888352
X       11.60202477      11.99237055      11.25014288       0.12279987       0.88821824      -0.44218877      -0.02139281      -0.78244212       0.15618309      -0.18902127      -0.00801036       0.00801577       0.00233645       1.00000000       1.50000000       2.00000000      -0.02728392      -0.03085633      -0.01472789      -0.00888352
2
Properties=species:S:1:pos:R:3:quaternions:R:4:old_torques:R:3:torques:R:3:c_diameter[1]:R:1:c_diameter[2]:R:1:c_diameter[3]:R:1:forces:R:3:energies:R:1 separation_distance=2.975190490223465 old_energy=-0.39153789436005604 distance=2.9751904927146215 gb_cutoff=5.0 gb_epsilon=1.0 gb_sigma=1.0 energy=-0.00784163726020561 pbc="F F F"
X       10.00000000      10.00000000      10.00000000       0.18912587      -0.43799592      -0.74863777      -0.46036123       0.50863913      -0.36245399       0.35118571       0.00613146      -0.00860047       0.00252493       1.00000000       1.50000000       2.00000000       0.01728317       0.02565857       0.02164335      -0.00784164
X       11.80285977      11.92721749      11.37378596       0.53904975      -0.17325184      -0.46319994       0.68180274      -0.04650003      -0.23165657      -0.08998183       0.00033060      -0.00667609       0.01042546       1.00000000       1.50000000       2.00000000      -0.01728317      -0.02565857      -0.02164335      -0.00784164
2
Properties=species:S:1:pos:R:3:quaternions:R:4:old_torques:R:3:torques:R:3:c_diameter[1]:R:1:c_diameter[2]:R:1:c_diameter[3]:R:1:forces:R:3:energies:R:1 separation_distance=2.9949756855026086 old_energy=-0.22428139440738562 distance=2.994975687024075 gb_cutoff=5.0 gb_epsilon=1.0 gb_sigma=1.0 energy=-0.005621105662736364 pbc="F F F"
X       10.00000000      10.00000000      10.00000000       0.55483242       0.67600293       0.37870185       0.30292893       0.04399437      -0.50657008       0.08839891      -0.00446908       0.00270468       0.00010981       1.00000000       1.50000000       2.00000000       0.01217302       0.01588865       0.01601139      -0.00562111
X       11.26934751      11.84649914      11.98722852       0.13952061       0.01546310      -0.44088229       0.88651999      -0.10271810       0.21377882       0.32612351       0.00245971       0.00116187      -0.00241906       1.00000000       1.50000000       2.00000000      -0.01217302      -0.01588865      -0.01601139      -0.00562111
2
Properties=species:S:1:pos:R:3:quaternions:R:4:old_torques:R:3:torques:R:3:c_diameter[1]:R:1:c_diameter[2]:R:1:c_diameter[3]:R:1:forces:R:3:energies:R:1 separation_distance=2.9398649730176403 old_energy=-0.28389090377008575 distance=2.939864969284182 gb_cutoff=5.0 gb_epsilon=1.0 gb_sigma=1.0 energy=-0.011367422366427899 pbc="F F F"
X       10.00000000      10.00000000      10.00000000       0.51621077      -0.06900127      -0.85235170      -0.04755895      -2.08877618      -6.99618904       3.59059389      -0.00519182      -0.00234094       0.01485194       1.00000000       1.50000000       2.00000000       0.03861308       0.03480579       0.02571219      -0.01136742
X       11.80605246      11.69687899      11.58163910       0.05242005      -0.20250849       0.83677564      -0.50601282      -4.13457738       7.15963122      -3.14208919      -0.00622791       0.01697534      -0.01751258       1.00000000       1.50000000       2.00000000      -0.03861308      -0.03480579      -0.02571219      -0.01136742
2
Properties=species:S:1:pos:R:3:quaternions:R:4:old_torques:R:3:torques:R:3:c_diameter[1]:R:1:c_diameter[2]:R:1:c_diameter[3]:R:1:forces:R:3:energies:R:1 separation_distance=3.007429299178864 old_energy=-0.20331292114977723 distance=3.007429304207621 gb_cutoff=5.0 gb_epsilon=1.0 gb_sigma=1.0 energy=-0.00576368237516791 pbc="F F F"
X       10.00000000      10.00000000      10.00000000       0.58987860       0.16138248       0.50014037      -0.61307303       0.14676950       0.43783208      -0.26847380       0.00461942      -0.00331766      -0.00045594       1.00000000       1.50000000       2.00000000       0.01468305       0.01741151       0.01331480      -0.00576368
X       11.81194673      11.73187653      11.66195179       0.20490408       0.62045727      -0.74146579      -0.15256335       0.00957294      -0.19762072       0.08823606      -0.01049692       0.00359448       0.00657544       1.00000000       1.50000000       2.00000000      -0.01468305      -0.01741151      -0.01331480      -0.00576368
2
Properties=species:S:1:pos:R:3:quaternions:R:4:old_torques:R:3:torques:R:3:c_diameter[1]:R:1:c_diameter[2]:R:1:c_diameter[3]:R:1:forces:R:3:energies:R:1 separation_distance=2.742002248389839 old_energy=-0.6574868145907321 distance=2.74200224431414 gb_cutoff=5.0 gb_epsilon=1.0 gb_sigma=1.0 energy=-0.015982877263734107 pbc="F F F"
X       10.00000000      10.00000000      10.00000000       0.60301668       0.08584148      -0.73634718       0.29460983       0.00347444       0.33318011      -0.08490814       0.01978640      -0.03846971       0.01204718       1.00000000       1.50000000       2.00000000       0.03523013       0.04349912       0.06687191      -0.01598288
X       11.18400213      11.71530259      11.78169927       0.76575508      -0.62457218      -0.14934137      -0.03501294      -0.33898778       0.19874536       0.26190717       0.01741681       0.02206272      -0.02097446       1.00000000       1.50000000       2.00000000      -0.03523013      -0.04349912      -0.06687191      -0.01598288
2
Properties=species:S:1:pos:R:3:quaternions:R:4:old_torques:R:3:torques:R:3:c_diameter[1]:R:1:c_diameter[2]:R:1:c_diameter[3]:R:1:forces:R:3:energies:R:1 separation_distance=2.8322706347517355 old_energy=-0.3294083171948765 distance=2.83227063718941 gb_cutoff=5.0 gb_epsilon=1.0 gb_sigma=1.0 energy=-0.010647630814258617 pbc="F F F"
X       10.00000000      10.00000000      10.00000000       0.75087229      -0.10795770      -0.55460654       0.34197591       0.11117112       0.21232823      -0.50170776       0.00489738      -0.01551503       0.00850455       1.00000000       1.50000000       2.00000000       0.02884826       0.03136870       0.03284252      -0.01064763
X       11.51986588      11.67187855      11.70780174       0.41816083       0.75781226       0.49399177      -0.08266939       0.07207688       0.44011071      -0.28601364      -0.00356018       0.01486591      -0.00905912       1.00000000       1.50000000       2.00000000      -0.02884826      -0.03136870      -0.03284252      -0.01064763
2
Properties=species:S:1:pos:R:3:quaternions:R:4:old_torques:R:3:torques:R:3:c_diameter[1]:R:1:c_diameter[2]:R:1:c_diameter[3]:R:1:forces:R:3:energies:R:1 separation_distance=2.6668349069306285 old_energy=-0.669335304113813 distance=2.6668349112053544 gb_cutoff=5.0 gb_epsilon=1.0 gb_sigma=1.0 energy=-0.00812776942463934 pbc="F F F"
X       10.00000000      10.00000000      10.00000000       0.32833170      -0.74410759      -0.57743032      -0.07124900      -0.28049952       0.82730989       0.56001069       0.00263367      -0.00248366       0.00093245       1.00000000       1.50000000       2.00000000       0.01734712       0.02991811       0.01760184      -0.00812777
X       11.17509394      11.89754421      11.45961935       0.00020868       0.56396630      -0.82510092       0.03391822       0.04909818      -0.70639818       0.27042525      -0.01290245       0.00712003       0.00130721       1.00000000       1.50000000       2.00000000      -0.01734712      -0.02991811      -0.01760184      -0.00812777
2
Properties=species:S:1:pos:R:3:quaternions:R:4:old_torques:R:3:torques:R:3:c_diameter[1]:R:1:c_diameter[2]:R:1:c_diameter[3]:R:1:forces:R:3:energies:R:1 separation_distance=3.1241355348040933 old_energy=-0.5294347505144795 distance=3.1241355331847367 gb_cutoff=5.0 gb_epsilon=1.0 gb_sigma=1.0 energy=-0.006322479760490434 pbc="F F F"
X       10.00000000      10.00000000      10.00000000       0.08792084      -0.94094287       0.32591888       0.02594832       0.82122830       0.06478947       0.00258019      -0.00400970       0.00387599      -0.00119348       1.00000000       1.50000000       2.00000000       0.01919554       0.01669499       0.01501714      -0.00632248
X       11.78895279      11.68516225      11.92875580       0.46009263       0.68277490       0.56734783      -0.01580029      -0.01489562       0.36854584       0.21694358      -0.00288455       0.00628257      -0.00128757       1.00000000       1.50000000       2.00000000      -0.01919554      -0.01669499      -0.01501714      -0.00632248
2
Properties=species:S:1:pos:R:3:quaternions:R:4:old_torques:R:3:torques:R:3:c_diameter[1]:R:1:c_diameter[2]:R:1:c_diameter[3]:R:1:forces:R:3:energies:R:1 separation_distance=2.9348590386226836 old_energy=-0.34443102722043434 distance=2.934859037412775 gb_cutoff=5.0 gb_epsilon=1.0 gb_sigma=1.0 energy=-0.005910171065333989 pbc="F F F"
X       10.00000000      10.00000000      10.00000000       0.16150392       0.16443095      -0.44600245       0.86484725       0.50777946      -0.40724031      -2.49062239      -0.00017713       0.00140372       0.00068539       1.00000000       1.50000000       2.00000000       0.01297170       0.01412940       0.01874206      -0.00591017
X       11.40101227      11.63316451      11.99582962       0.53118111       0.16132310       0.66115429      -0.50467463      -1.91166893      -8.53801523       2.21959501       0.00258612      -0.00177226      -0.00207485       1.00000000       1.50000000       2.00000000      -0.01297170      -0.01412940      -0.01874206      -0.00591017
2
Properties=species:S:1:pos:R:3:quaternions:R:4:old_torques:R:3:torques:R:3:c_diameter[1]:R:1:c_diameter[2]:R:1:c_diameter[3]:R:1:forces:R:3:energies:R:1 separation_distance=2.8795922649868824 old_energy=-0.42183105811488464 distance=2.879592267879193 gb_cutoff=5.0 gb_epsilon=1.0 gb_sigma=1.0 energy=-0.015085514465237556 pbc="F F F"
X       10.00000000      10.00000000      10.00000000       0.61124588      -0.75790583      -0.05955232      -0.22002442      -0.02846435       0.39544862       0.01397330       0.01465391       0.00249047      -0.02311750       1.00000000       1.50000000       2.00000000       0.06387788       0.02339950       0.04685477      -0.01508551
X       11.88450447      11.52379762      11.55522839       0.46817177       0.05584841       0.46210018       0.75110557       0.36947696       0.48122462      -0.59643397       0.02035171       0.00855620      -0.03012300       1.00000000       1.50000000       2.00000000      -0.06387788      -0.02339950      -0.04685477      -0.01508551
2
Properties=species:S:1:pos:R:3:quaternions:R:4:old_torques:R:3:torques:R:3:c_diameter[1]:R:1:c_diameter[2]:R:1:c_diameter[3]:R:1:forces:R:3:energies:R:1 separation_distance=3.1611117287194532 old_energy=-0.4123520692916593 distance=3.1611117232913184 gb_cutoff=5.0 gb_epsilon=1.0 gb_sigma=1.0 energy=-0.004801170346467326 pbc="F F F"
X       10.00000000      10.00000000      10.00000000       0.25475317       0.47837224       0.33387593      -0.77122480      -1.52709151      -0.06403168       0.03679062       0.00738818      -0.00357362      -0.00075065       1.00000000       1.50000000       2.00000000       0.00981364       0.01263394       0.01403255      -0.00480117
X       11.61716352      11.97570019      11.86387184       0.13077282       0.25579614      -0.28814603       0.91347615       0.92487413      -0.74813694      -0.94640431      -0.00321212      -0.00082793       0.00179299       1.00000000       1.50000000       2.00000000      -0.00981364      -0.01263394      -0.01403255      -0.00480117
2
Properties=species:S:1:pos:R:3:quaternions:R:4:old_torques:R:3:torques:R:3:c_diameter[1]:R:1:c_diameter[2]:R:1:c_diameter[3]:R:1:forces:R:3:energies:R:1 separation_distance=3.1192451594688646 old_energy=-0.5832264722735193 distance=3.1192451586714887 gb_cutoff=5.0 gb_epsilon=1.0 gb_sigma=1.0 energy=-0.006390334383860875 pbc="F F F"
X       10.00000000      10.00000000      10.00000000       0.25441496       0.08394262       0.95284473      -0.14252576       1.48503777      -0.28729815      -0.10847385       0.00206527       0.00933275      -0.00706659       1.00000000       1.50000000       2.00000000       0.01700583       0.01417833       0.02028562      -0.00639033
X       11.54615237      11.91096066      11.92024284       0.51816903       0.29885767      -0.67892338       0.42573231      -0.01203837      -0.44745933      -0.19073156       0.00947392      -0.00804209      -0.00350903       1.00000000       1.50000000       2.00000000      -0.01700583      -0.01417833      -0.02028562      -0.00639033
2
Properties=species:S:1:pos:R:3:quaternions:R:4:old_torques:R:3:torques:R:3:c_diameter[1]:R:1:c_diameter[2]:R:1:c_diameter[3]:R:1:forces:R:3:energies:R:1 separation_distance=2.7517353818093637 old_energy=-0.40436800383897403 distance=2.7517353803019926 gb_cutoff=5.0 gb_epsilon=1.0 gb_sigma=1.0 energy=-0.03937756719726929 pbc="F F F"
X       10.00000000      10.00000000      10.00000000       0.63989486      -0.41243830       0.14544631       0.63188178      -0.18375865      -0.82178471       3.52535468      -0.00207671       0.04892872      -0.03749318       1.00000000       1.50000000       2.00000000       0.13948081       0.14678354       0.13770841      -0.03937757
X       11.14808288      11.96873916      11.54208282       0.52958759       0.76987603      -0.35495662       0.02887361       3.55317544      -4.74705389      -3.50233325       0.04683628       0.00806158      -0.06858849       1.00000000       1.50000000       2.00000000      -0.13948081      -0.14678354      -0.13770841      -0.03937757
2
Properties=species:S:1:pos:R:3:quaternions:R:4:old_torques:R:3:torques:R:3:c_diameter[1]:R:1:c_diameter[2]:R:1:c_diameter[3]:R:1:forces:R:3:energies:R:1 separation_distance=2.61559561588105 old_energy=-0.6142390490264081 distance=2.6155956088851524 gb_cutoff=5.0 gb_epsilon=1.0 gb_sigma=1.0 energy=-0.029596004001553492 pbc="F F F"
X       10.00000000      10.00000000      10.00000000       0.36431364      -0.16614343       0.61056883       0.68328444      -0.28506654      -1.45491993       2.54538086       0.06539961      -0.00500079      -0.06155694       1.00000000       1.50000000       2.00000000       0.10925696       0.08474374       0.11293106      -0.02959600
X       11.26160556      11.72812919      11.50441394       0.07906837       0.46354543      -0.67834327       0.56455667      -0.65516067       1.80827618      -3.27039329       0.00227019       0.02689402      -0.02034002       1.00000000       1.50000000       2.00000000      -0.10925696      -0.08474374      -0.11293106      -0.02959600
2
Properties=species:S:1:pos:R:3:quaternions:R:4:old_torques:R:3:torques:R:3:c_diameter[1]:R:1:c_diameter[2]:R:1:c_diameter[3]:R:1:forces:R:3:energies:R:1 separation_distance=3.0755185086263435 old_energy=-0.2238311270720804 distance=3.0755185037805775 gb_cutoff=5.0 gb_epsilon=1.0 gb_sigma=1.0 energy=-0.009730340100757675 pbc="F F F"
X       10.00000000      10.00000000      10.00000000       0.82379333      -0.14129591       0.46578693       0.29059002      -1.10517703       0.33730073      -1.02747020       0.00743333      -0.00971453       0.00468652       1.00000000       1.50000000       2.00000000       0.02087793       0.02623455       0.03503763      -0.00973034
X       11.40346400      11.90234091      11.96728288       0.45653340       0.13602711       0.87611349       0.07415552       3.31633919      -3.74763960      -2.37467946       0.00760940       0.00161327      -0.00758420       1.00000000       1.50000000       2.00000000      -0.02087793      -0.02623455      -0.03503763      -0.00973034
2
Properties=species:S:1:pos:R:3:quaternions:R:4:old_torques:R:3:torques:R:3:c_diameter[1]:R:1:c_diameter[2]:R:1:c_diameter[3]:R:1:forces:R:3:energies:R:1 separation_distance=2.633313095923287 old_energy=-0.5473423310366842 distance=2.6333130950477344 gb_cutoff=5.0 gb_epsilon=1.0 gb_sigma=1.0 energy=-0.02289707982207305 pbc="F F F"
X       10.00000000      10.00000000      10.00000000       0.50019078       0.86498297       0.03893480       0.00988561      -0.12051689      -0.13430448      -0.70099434       0.00199574       0.03919572      -0.04557257       1.00000000       1.50000000       2.00000000       0.09477857       0.06547864       0.06194167      -0.02289708
X       11.65160745      11.35299610      11.54140593       0.74856965       0.41580166       0.51315813       0.05849098      -0.05270771       0.44869269       0.38285015      -0.01911808       0.00459321       0.02548255       1.00000000       1.50000000       2.00000000      -0.09477857      -0.06547864      -0.06194167      -0.02289708
2
Properties=species:S:1:pos:R:3:quaternions:R:4:old_torques:R:3:torques:R:3:c_diameter[1]:R:1:c_diameter[2]:R:1:c_diameter[3]:R:1:forces:R:3:energies:R:1 separation_distance=2.700531235748924 old_energy=-0.6609536717474016 distance=2.7005312316011554 gb_cutoff=5.0 gb_epsilon=1.0 gb_sigma=1.0 energy=-0.023161592236212666 pbc="F F F"
X       10.00000000      10.00000000      10.00000000       0.87461145      -0.48056257      -0.06002734      -0.02260849       0.27381896      -0.48220172      -1.18270087      -0.00334902       0.02476154      -0.05777140       1.00000000       1.50000000       2.00000000       0.09199130       0.08958190       0.03864329      -0.02316159
X       11.69761471      11.72819976      11.19343991       0.56674134      -0.38277711       0.24822361      -0.68605465       0.02728090       0.00945987       1.24416827      -0.03677826       0.01942312       0.05086761       1.00000000       1.50000000       2.00000000      -0.09199130      -0.08958190      -0.03864329      -0.02316159
2
Properties=species:S:1:pos:R:3:quaternions:R:4:old_torques:R:3:torques:R:3:c_diameter[1]:R:1:c_diameter[2]:R:1:c_diameter[3]:R:1:forces:R:3:energies:R:1 separation_distance=3.276744339787011 old_energy=-0.10010491385091803 distance=3.2767443405236776 gb_cutoff=5.0 gb_epsilon=1.0 gb_sigma=1.0 energy=-0.0024801604248476006 pbc="F F F"
X       10.00000000      10.00000000      10.00000000       0.05540232      -0.98626315      -0.14608843       0.05360744       0.03699803       0.30439754      -0.04524196      -0.00183465       0.00283138      -0.00085655       1.00000000       1.50000000       2.00000000       0.00674971       0.00547153       0.00440229      -0.00248016
X       11.94709566      11.89585038      11.83074392       0.15222930       0.96155893       0.13940832       0.18109661      -0.01466214      -0.09852532      -0.06211172       0.00016377       0.00095394      -0.00128631       1.00000000       1.50000000       2.00000000      -0.00674971      -0.00547153      -0.00440229      -0.00248016
2
Properties=species:S:1:pos:R:3:quaternions:R:4:old_torques:R:3:torques:R:3:c_diameter[1]:R:1:c_diameter[2]:R:1:c_diameter[3]:R:1:forces:R:3:energies:R:1 separation_distance=2.4792840108402423 old_energy=-0.7750013437566511 distance=2.4792840106126555 gb_cutoff=5.0 gb_epsilon=1.0 gb_sigma=1.0 energy=-0.0426696890255911 pbc="F F F"
X       10.00000000      10.00000000      10.00000000       0.90015694       0.15960384       0.40437409      -0.02693858      -0.00890284      -0.03904777       0.12214630      -0.05494142       0.05551038       0.02343802       1.00000000       1.50000000       2.00000000       0.19764385       0.18221642       0.05788828      -0.04266969
X       11.94474237      11.14312449      11.02863634       0.42721751       0.41072934      -0.72308619      -0.35487035      -0.25576125       0.69815459       0.42600405      -0.06631951       0.03521547       0.10499445       1.00000000       1.50000000       2.00000000      -0.19764385      -0.18221642      -0.05788828      -0.04266969
2
Properties=species:S:1:pos:R:3:quaternions:R:4:old_torques:R:3:torques:R:3:c_diameter[1]:R:1:c_diameter[2]:R:1:c_diameter[3]:R:1:forces:R:3:energies:R:1 separation_distance=2.8512594870573884 old_energy=-0.5045167248116471 distance=2.8512594898132657 gb_cutoff=5.0 gb_epsilon=1.0 gb_sigma=1.0 energy=-0.013997818970493367 pbc="F F F"
X       10.00000000      10.00000000      10.00000000       0.50826341       0.01819561       0.71863344       0.47423961      -0.24865108      -0.07188147      -0.28440402       0.02301838      -0.02034802      -0.01276673       1.00000000       1.50000000       2.00000000       0.04905332       0.03741233       0.04144212      -0.01399782
X       11.79057539      11.71312719      11.41021831       0.64411436       0.68725206       0.33208605       0.05020109      -0.03083183      -0.56280906       0.00072024      -0.00478230       0.01531866      -0.00427825       1.00000000       1.50000000       2.00000000      -0.04905332      -0.03741233      -0.04144212      -0.01399782
2
Properties=species:S:1:pos:R:3:quaternions:R:4:old_torques:R:3:torques:R:3:c_diameter[1]:R:1:c_diameter[2]:R:1:c_diameter[3]:R:1:forces:R:3:energies:R:1 separation_distance=3.021196504489957 old_energy=-0.13898096350345135 distance=3.021196503495089 gb_cutoff=5.0 gb_epsilon=1.0 gb_sigma=1.0 energy=-0.009967887016026803 pbc="F F F"
X       10.00000000      10.00000000      10.00000000       0.48228749      -0.43503983       0.36940434      -0.66458976       0.02838739       0.04871873      -0.19564013      -0.01302588      -0.00545123       0.01420720       1.00000000       1.50000000       2.00000000       0.02239170       0.03140115       0.03244727      -0.00996789
X       11.78579245      11.62879940      11.81261859       0.37442406      -0.07856681      -0.59384369       0.70780191       0.00523923      -0.04486095       0.09268530       0.00895767      -0.01190526       0.00539715       1.00000000       1.50000000       2.00000000      -0.02239170      -0.03140115      -0.03244727      -0.00996789
2
Properties=species:S:1:pos:R:3:quaternions:R:4:old_torques:R:3:torques:R:3:c_diameter[1]:R:1:c_diameter[2]:R:1:c_diameter[3]:R:1:forces:R:3:energies:R:1 separation_distance=2.6345338756907553 old_energy=-0.7190553156551293 distance=2.6345338739656823 gb_cutoff=5.0 gb_epsilon=1.0 gb_sigma=1.0 energy=-0.017968197334391083 pbc="F F F"
X       10.00000000      10.00000000      10.00000000       0.47761815      -0.42189687      -0.63334548       0.43904149       0.37612757       3.63859781       1.08484613      -0.01730122      -0.01868255       0.02306071       1.00000000       1.50000000       2.00000000       0.02296611       0.07424565       0.06217224      -0.01796820
X       11.16237230      11.78361558      11.55189395       0.56788264       0.02744995      -0.82263697      -0.00492098      -0.09402440      -0.76323311       0.90942139       0.01297123      -0.01794377       0.02227766       1.00000000       1.50000000       2.00000000      -0.02296611      -0.07424565      -0.06217224      -0.01796820
2
Properties=species:S:1:pos:R:3:quaternions:R:4:old_torques:R:3:torques:R:3:c_diameter[1]:R:1:c_diameter[2]:R:1:c_diameter[3]:R:1:forces:R:3:energies:R:1 separation_distance=2.766857125339579 old_energy=-0.647181895463269 distance=2.7668571249921317 gb_cutoff=5.0 gb_epsilon=1.0 gb_sigma=1.0 energy=-0.01813345322364664 pbc="F F F"
X       10.00000000      10.00000000      10.00000000       0.64677767      -0.07809459       0.43547231      -0.62124372      -0.04176916       0.03017584       0.08418340      -0.01588127      -0.00510334       0.00924137       1.00000000       1.50000000       2.00000000       0.02616243       0.07232855       0.06461898      -0.01813345
X       11.00300091      11.75659712      11.88781728       0.35694465       0.90709928      -0.13930298      -0.17422997       0.01090639      -0.07078580       0.01143624      -0.00715229      -0.01031967       0.01734738       1.00000000       1.50000000       2.00000000      -0.02616243      -0.07232855      -0.06461898      -0.01813345
2
Properties=species:S:1:pos:R:3:quaternions:R:4:old_torques:R:3:torques:R:3:c_diameter[1]:R:1:c_diameter[2]:R:1:c_diameter[3]:R:1:forces:R:3:energies:R:1 separation_distance=2.9265171900306215 old_energy=-0.4522389721879668 distance=2.926517189706665 gb_cutoff=5.0 gb_epsilon=1.0 gb_sigma=1.0 energy=-0.006221045349000763 pbc="F F F"
X       10.00000000      10.00000000      10.00000000       0.62187732      -0.23717698      -0.33795704       0.66543273      -0.07303146      -0.60483647      -0.16371954      -0.00148623      -0.00196260       0.00684343       1.00000000       1.50000000       2.00000000       0.01102889       0.02288030       0.01361231      -0.00622105
X       11.24051271      11.98735810      11.75386398       0.44510402      -0.11337080       0.05107977      -0.88680344      -0.59576164      -0.85291512      -0.51421233      -0.01159017       0.00441953      -0.00037848       1.00000000       1.50000000       2.00000000      -0.01102889      -0.02288030      -0.01361231      -0.00622105
2
Properties=species:S:1:pos:R:3:quaternions:R:4:old_torques:R:3:torques:R:3:c_diameter[1]:R:1:c_diameter[2]:R:1:c_diameter[3]:R:1:forces:R:3:energies:R:1 separation_distance=2.799624592161683 old_energy=-0.43724194467394695 distance=2.799624591642134 gb_cutoff=5.0 gb_epsilon=1.0 gb_sigma=1.0 energy=-0.005326685917563888 pbc="F F F"
X       10.00000000      10.00000000      10.00000000       0.13476862       0.95950210       0.16296858       0.18610316      -0.16658900      -0.70528894      -0.39107245       0.00059514       0.00154432      -0.00332007       1.00000000       1.50000000       2.00000000       0.01560160       0.01549323       0.00816240      -0.00532669
X       11.63899604      11.99618250      11.08020612       0.10066420      -0.22803433       0.96809647       0.02561799      -0.21595256      -1.17915226      -0.28255113      -0.00103739       0.00193049      -0.00243024       1.00000000       1.50000000       2.00000000      -0.01560160      -0.01549323      -0.00816240      -0.00532669
2
Properties=species:S:1:pos:R:3:quaternions:R:4:old_torques:R:3:torques:R:3:c_diameter[1]:R:1:c_diameter[2]:R:1:c_diameter[3]:R:1:forces:R:3:energies:R:1 separation_distance=2.6671841417448774 old_energy=-0.7220784681494821 distance=2.667184136892445 gb_cutoff=5.0 gb_epsilon=1.0 gb_sigma=1.0 energy=-0.018074997595113322 pbc="F F F"
X       10.00000000      10.00000000      10.00000000       0.94142061       0.09932142       0.23669694      -0.21871681       0.03357226       0.50995542      -0.17298245      -0.01556228       0.02429362      -0.00315730       1.00000000       1.50000000       2.00000000       0.08206831       0.04613082       0.02911754      -0.01807500
X       11.98245868      11.44245557      11.05026222       0.25349174      -0.95377264       0.15293579      -0.05167525       0.45426196       1.05527771      -0.48064333       0.00911359       0.00417530      -0.02377015       1.00000000       1.50000000       2.00000000      -0.08206831      -0.04613082      -0.02911754      -0.01807500
2
Properties=species:S:1:pos:R:3:quaternions:R:4:old_torques:R:3:torques:R:3:c_diameter[1]:R:1:c_diameter[2]:R:1:c_diameter[3]:R:1:forces:R:3:energies:R:1 separation_distance=3.2473815667523307 old_energy=-0.1995687336777956 distance=3.2473815741178576 gb_cutoff=5.0 gb_epsilon=1.0 gb_sigma=1.0 energy=-0.002467493679739643 pbc="F F F"
X       10.00000000      10.00000000      10.00000000       0.90335857      -0.34688362      -0.18883489       0.16720175       0.10430639      -0.07304068       0.23807564      -0.00034073       0.00161640      -0.00102040       1.00000000       1.50000000       2.00000000       0.00681272       0.00523253       0.00451792      -0.00246749
X       11.96702933      11.97853193      11.66183456       0.00946835      -0.02915918      -0.42407128       0.90510974       0.08197378      -0.17756265       0.27326821       0.00058398       0.00081832      -0.00216624       1.00000000       1.50000000       2.00000000      -0.00681272      -0.00523253      -0.00451792      -0.00246749
2
Properties=species:S:1:pos:R:3:quaternions:R:4:old_torques:R:3:torques:R:3:c_diameter[1]:R:1:c_diameter[2]:R:1:c_diameter[3]:R:1:forces:R:3:energies:R:1 separation_distance=2.794239959526799 old_energy=-0.5965914866479021 distance=2.794239955291834 gb_cutoff=5.0 gb_epsilon=1.0 gb_sigma=1.0 energy=-0.009614104138889808 pbc="F F F"
X       10.00000000      10.00000000      10.00000000       0.33192259       0.45757171       0.63440264       0.52724644      -0.96524999       2.23485942      -2.45906188      -0.00171991      -0.01024336       0.01315208       1.00000000       1.50000000       2.00000000       0.01568428       0.03571394       0.02780314      -0.00961410
X       11.00535067      11.99792150      11.67491989       0.26936969       0.23490435      -0.73986020      -0.56997088      -0.76941663      -3.46344392       2.04838680      -0.00254959       0.00856136      -0.00858300       1.00000000       1.50000000       2.00000000      -0.01568428      -0.03571394      -0.02780314      -0.00961410
2
Properties=species:S:1:pos:R:3:quaternions:R:4:old_torques:R:3:torques:R:3:c_diameter[1]:R:1:c_diameter[2]:R:1:c_diameter[3]:R:1:forces:R:3:energies:R:1 separation_distance=2.6482477281619206 old_energy=-0.7596385363136766 distance=2.6482477256960615 gb_cutoff=5.0 gb_epsilon=1.0 gb_sigma=1.0 energy=-0.013305386040809341 pbc="F F F"
X       10.00000000      10.00000000      10.00000000       0.10687382      -0.46971436       0.08455875       0.87223634       0.00304758      -0.53037516      -0.26865632       0.01086166       0.00120175      -0.00916306       1.00000000       1.50000000       2.00000000       0.04238673       0.02615442       0.04898736      -0.01330539
X       11.88143128      11.16122239      11.45773623       0.71492132      -0.04515973       0.69713509      -0.02916800       0.50325622      -5.84688876      -0.83030767       0.00789730      -0.03157942       0.00915039       1.00000000       1.50000000       2.00000000      -0.04238673      -0.02615442      -0.04898736      -0.01330539
2
Properties=species:S:1:pos:R:3:quaternions:R:4:old_torques:R:3:torques:R:3:c_diameter[1]:R:1:c_diameter[2]:R:1:c_diameter[3]:R:1:forces:R:3:energies:R:1 separation_distance=2.85949640961468 old_energy=-0.6039480698493833 distance=2.8594964041738504 gb_cutoff=5.0 gb_epsilon=1.0 gb_sigma=1.0 energy=-0.00891313358540186 pbc="F F F"
X       10.00000000      10.00000000      10.00000000       0.05224606      -0.25185883      -0.74387870      -0.61683219      -1.65127936      -0.71942486       0.47315625       0.00596488       0.00077491      -0.00862210       1.00000000       1.50000000       2.00000000       0.02911527       0.02040834       0.02515503      -0.00891313
X       11.79640482      11.70719308      11.42658375       0.36209659      -0.83882108      -0.23031303      -0.33499427      -0.01953525       0.06365305      -0.59203933       0.00786540      -0.00442815      -0.00442164       1.00000000       1.50000000       2.00000000      -0.02911527      -0.02040834      -0.02515503      -0.00891313
2
Properties=species:S:1:pos:R:3:quaternions:R:4:old_torques:R:3:torques:R:3:c_diameter[1]:R:1:c_diameter[2]:R:1:c_diameter[3]:R:1:forces:R:3:energies:R:1 separation_distance=2.89093807877885 old_energy=-0.7296652423053641 distance=2.8909380793437816 gb_cutoff=5.0 gb_epsilon=1.0 gb_sigma=1.0 energy=-0.013773700731085832 pbc="F F F"
X       10.00000000      10.00000000      10.00000000       0.45627098      -0.45162694      -0.46550853      -0.60922222      -0.00834461       2.62786896      -0.02117913       0.01481146      -0.00459262      -0.01686790       1.00000000       1.50000000       2.00000000       0.05743758       0.03301485       0.03158708      -0.01377370
X       11.93385028      11.85472113      11.08524449       0.29720900      -0.21060496       0.35971444       0.85902147       0.02572875      -0.77092508      -0.03367089       0.00794457       0.00584176      -0.02581701       1.00000000       1.50000000       2.00000000      -0.05743758      -0.03301485      -0.03158708      -0.01377370
2
Properties=species:S:1:pos:R:3:quaternions:R:4:old_torques:R:3:torques:R:3:c_diameter[1]:R:1:c_diameter[2]:R:1:c_diameter[3]:R:1:forces:R:3:energies:R:1 separation_distance=2.850445676727431 old_energy=-0.45255690448670965 distance=2.8504456764508945 gb_cutoff=5.0 gb_epsilon=1.0 gb_sigma=1.0 energy=-0.01990662721376166 pbc="F F F"
X       10.00000000      10.00000000      10.00000000       0.88785508      -0.33120595       0.13259978      -0.29057404      -0.00298716      -0.22262295       0.13822167      -0.02584117       0.00388214       0.01742872       1.00000000       1.50000000       2.00000000       0.04912286       0.09077634       0.04660468      -0.01990663
X       11.71712008      11.84496439      11.33140737       0.50405151      -0.42352234      -0.66092519       0.36019272      -0.50842254      -0.48006552      -0.51463342      -0.00903516      -0.01850542       0.04781524       1.00000000       1.50000000       2.00000000      -0.04912286      -0.09077634      -0.04660468      -0.01990663
2
Properties=species:S:1:pos:R:3:quaternions:R:4:old_torques:R:3:torques:R:3:c_diameter[1]:R:1:c_diameter[2]:R:1:c_diameter[3]:R:1:forces:R:3:energies:R:1 separation_distance=2.8783096030300697 old_energy=-0.4097534805855234 distance=2.87830959883071 gb_cutoff=5.0 gb_epsilon=1.0 gb_sigma=1.0 energy=-0.006426776199048425 pbc="F F F"
X       10.00000000      10.00000000      10.00000000       0.85776204      -0.41672002      -0.21545616      -0.21016031       0.04429110      -0.09981177       0.39163780       0.00529201       0.00375441      -0.01186470       1.00000000       1.50000000       2.00000000       0.02115847       0.01594368       0.01375507      -0.00642678
X       11.63846002      11.93731188      11.35902082       0.17167868      -0.13524224       0.97323962       0.07099725      -0.29274159      -0.88104622      -0.56229625      -0.00031194       0.00246327      -0.00300279       1.00000000       1.50000000       2.00000000      -0.02115847      -0.01594368      -0.01375507      -0.00642678
2
Properties=species:S:1:pos:R:3:quaternions:R:4:old_torques:R:3:torques:R:3:c_diameter[1]:R:1:c_diameter[2]:R:1:c_diameter[3]:R:1:forces:R:3:energies:R:1 separation_distance=2.76397619982776 old_energy=-0.7111905583499089 distance=2.7639761967992884 gb_cutoff=5.0 gb_epsilon=1.0 gb_sigma=1.0 energy=-0.01876631869716705 pbc="F F F"
X       10.00000000      10.00000000      10.00000000       0.13285260      -0.15408414       0.12152774       0.97151391      -0.26272162       0.71245886       0.39804110       0.00808948       0.03507325      -0.02142693       1.00000000       1.50000000       2.00000000       0.07673944       0.02598309       0.06906373      -0.01876632
X       11.53987165      11.31940911      11.87816914       0.67912873      -0.43213306      -0.15389468      -0.57302846      -0.07247896      -0.75909582      -0.14477293       0.03423319       0.00270712      -0.03981316       1.00000000       1.50000000       2.00000000      -0.07673944      -0.02598309      -0.06906373      -0.01876632
2
Properties=species:S:1:pos:R:3:quaternions:R:4:old_torques:R:3:torques:R:3:c_diameter[1]:R:1:c_diameter[2]:R:1:c_diameter[3]:R:1:forces:R:3:energies:R:1 separation_distance=2.7267498974677022 old_energy=-0.4607283567682066 distance=2.7267498994221486 gb_cutoff=5.0 gb_epsilon=1.0 gb_sigma=1.0 energy=-0.009519008330541567 pbc="F F F"
X       10.00000000      10.00000000      10.00000000       0.93330363      -0.16138962      -0.31469160       0.06218451      -4.40968068       1.37489426      -1.23978287       0.00217243      -0.00065021      -0.00601970       1.00000000       1.50000000       2.00000000       0.03159952       0.02514227       0.02389732      -0.00951901
X       11.62774657      11.58459248      11.50820184       0.58689023       0.66602779       0.45728576      -0.05344696       0.01382164       0.40712595      -0.40816586      -0.00222454       0.00940989      -0.00312742       1.00000000       1.50000000       2.00000000      -0.03159952      -0.02514227      -0.02389732      -0.00951901
2
Properties=species:S:1:pos:R:3:quaternions:R:4:old_torques:R:3:torques:R:3:c_diameter[1]:R:1:c_diameter[2]:R:1:c_diameter[3]:R:1:forces:R:3:energies:R:1 separation_distance=2.8876034618765383 old_energy=-0.18377542695752697 distance=2.887603458874949 gb_cutoff=5.0 gb_epsilon=1.0 gb_sigma=1.0 energy=-0.004706282928904396 pbc="F F F"
X       10.00000000      10.00000000      10.00000000       0.51548125      -0.76829128      -0.29853617      -0.23427280       0.02811570      -0.11882471       0.17557178       0.00423767      -0.00288323      -0.00366553       1.00000000       1.50000000       2.00000000       0.01486084       0.01138228       0.00821571      -0.00470628
X       11.95390203      11.86828978      11.01489600       0.06949265       0.24334170      -0.64021390      -0.72531493      -0.02668637       0.42439031       0.06583263      -0.00044017       0.00191274      -0.00185896       1.00000000       1.50000000       2.00000000      -0.01486084      -0.01138228      -0.00821571      -0.00470628
2
Properties=species:S:1:pos:R:3:quaternions:R:4:old_torques:R:3:torques:R:3:c_diameter[1]:R:1:c_diameter[2]:R:1:c_diameter[3]:R:1:forces:R:3:energies:R:1 separation_distance=2.6401293256550438 old_energy=-0.5691674593475828 distance=2.6401293286779026 gb_cutoff=5.0 gb_epsilon=1.0 gb_sigma=1.0 energy=-0.01422048932941535 pbc="F F F"
X       10.00000000      10.00000000      10.00000000       0.22531755       0.95916380       0.16898204      -0.02611286       0.30305948       0.51457741      -0.71718263      -0.01450388       0.03125698      -0.01898146       1.00000000       1.50000000       2.00000000       0.04215048       0.04573616       0.04291812      -0.01422049
X       11.17170234      11.62374524      11.72071145       0.17305254      -0.82275035      -0.45667520      -0.29083061      -0.02578867      -0.07258154       0.34545265       0.00549323      -0.00901542       0.00412899       1.00000000       1.50000000       2.00000000      -0.04215048      -0.04573616      -0.04291812      -0.01422049
2
Properties=species:S:1:pos:R:3:quaternions:R:4:old_torques:R:3:torques:R:3:c_diameter[1]:R:1:c_diameter[2]:R:1:c_diameter[3]:R:1:forces:R:3:energies:R:1 separation_distance=2.8915264257772235 old_energy=-0.5646785911966241 distance=2.891526433414124 gb_cutoff=5.0 gb_epsilon=1.0 gb_sigma=1.0 energy=-0.010845213892379154 pbc="F F F"
X       10.00000000      10.00000000      10.00000000       0.80617944       0.21582603       0.19847331      -0.51390873      -0.04414699      -0.16558041      -0.45892157      -0.01258308      -0.00804208       0.01168977       1.00000000       1.50000000       2.00000000       0.02123597       0.03087546       0.03942656      -0.01084521
X       11.54038655      11.44694809      11.97344258       0.73924460       0.57878974       0.01163721      -0.34407039      -0.45333577      -0.57923754      -0.47436498       0.00870032      -0.01078209       0.00514303       1.00000000       1.50000000       2.00000000      -0.02123597      -0.03087546      -0.03942656      -0.01084521
2
Properties=species:S:1:pos:R:3:quaternions:R:4:old_torques:R:3:torques:R:3:c_diameter[1]:R:1:c_diameter[2]:R:1:c_diameter[3]:R:1:forces:R:3:energies:R:1 separation_distance=2.666461329213558 old_energy=-0.39866874372696176 distance=2.6664613271546305 gb_cutoff=5.0 gb_epsilon=1.0 gb_sigma=1.0 energy=-0.015973504591474102 pbc="F F F"
X       10.00000000      10.00000000      10.00000000       0.06102172       0.18985158      -0.93773425      -0.28440674      -0.17895097      -0.61350695      -0.44168023      -0.01318794       0.02193550      -0.00534921       1.00000000       1.50000000       2.00000000       0.04772043       0.05351940       0.04757790      -0.01597350
X       11.33906502      11.44621876      11.79593212       0.82037333       0.33365953       0.46157870       0.05102965       0.01890615      -0.04200820       0.41465275      -0.01412123       0.00005725       0.00800100       1.00000000       1.50000000       2.00000000      -0.04772043      -0.05351940      -0.04757790      -0.01597350
2
Properties=species:S:1:pos:R:3:quaternions:R:4:old_torques:R:3:torques:R:3:c_diameter[1]:R:1:c_diameter[2]:R:1:c_diameter[3]:R:1:forces:R:3:energies:R:1 separation_distance=2.8611453763954184 old_energy=-0.6831610796539987 distance=2.8611453774718694 gb_cutoff=5.0 gb_epsilon=1.0 gb_sigma=1.0 energy=-0.005444285262605477 pbc="F F F"
X       10.00000000      10.00000000      10.00000000       0.24368016      -0.79085159      -0.30354935      -0.47226215      -0.08112786      -0.59098674      -0.17961597       0.00622598      -0.00740115      -0.00120399       1.00000000       1.50000000       2.00000000       0.01636502       0.01250226       0.01298937      -0.00544429
X       11.96618680      11.59401262      11.33393632       0.21147381      -0.28233843       0.93210564       0.08211520      -0.40790850      -0.66404827      -0.28843060      -0.00219799       0.00369151      -0.00030026       1.00000000       1.50000000       2.00000000      -0.01636502      -0.01250226      -0.01298937      -0.00544429
2
Properties=species:S:1:pos:R:3:quaternions:R:4:old_torques:R:3:torques:R:3:c_diameter[1]:R:1:c_diameter[2]:R:1:c_diameter[3]:R:1:forces:R:3:energies:R:1 separation_distance=3.050076670618502 old_energy=-0.2745373984676349 distance=3.0500766693890498 gb_cutoff=5.0 gb_epsilon=1.0 gb_sigma=1.0 energy=-0.006040019047915591 pbc="F F F"
X       10.00000000      10.00000000      10.00000000       0.82924162       0.12634097       0.44509024      -0.31351392      -0.02693426       0.40619970       0.04032251      -0.00193306      -0.00545658       0.00592750       1.00000000       1.50000000       2.00000000       0.01460083       0.01803808       0.01516927      -0.00604002
X       11.64017068      11.88005252      11.75448293       0.07413966       0.04282528       0.98563385       0.14558578      -0.39489956      -0.28038693      -0.25736491      -0.00119542       0.00619329      -0.00379229       1.00000000       1.50000000       2.00000000      -0.01460083      -0.01803808      -0.01516927      -0.00604002
2
Properties=species:S:1:pos:R:3:quaternions:R:4:old_torques:R:3:torques:R:3:c_diameter[1]:R:1:c_diameter[2]:R:1:c_diameter[3]:R:1:forces:R:3:energies:R:1 separation_distance=2.575019372692331 old_energy=-0.6555842667195753 distance=2.575019376012306 gb_cutoff=5.0 gb_epsilon=1.0 gb_sigma=1.0 energy=-0.012707183789224774 pbc="F F F"
X       10.00000000      10.00000000      10.00000000       0.35224935      -0.44032117       0.38042132      -0.73301929      -0.28284016      -0.25320390       0.99047864      -0.01855391       0.00505719       0.01973708       1.00000000       1.50000000       2.00000000       0.03917057       0.04514810       0.02811235      -0.01270718
X       11.67142663      11.46729534      11.29772963       0.05868398       0.88937304       0.37454997       0.25550756      -0.01984360      -0.59620978      -0.17016309       0.00121300      -0.00121212      -0.00175014       1.00000000       1.50000000       2.00000000      -0.03917057      -0.04514810      -0.02811235      -0.01270718
2
Properties=species:S:1:pos:R:3:quaternions:R:4:old_torques:R:3:torques:R:3:c_diameter[1]:R:1:c_diameter[2]:R:1:c_diameter[3]:R:1:forces:R:3:energies:R:1 separation_distance=2.917785347373517 old_energy=-0.4202549712288993 distance=2.9177853504303233 gb_cutoff=5.0 gb_epsilon=1.0 gb_sigma=1.0 energy=-0.004262786185199831 pbc="F F F"
X       10.00000000      10.00000000      10.00000000       0.20680871      -0.68526253      -0.60318115      -0.35187770      -0.09523973       0.18441130       0.45292084       0.00113858      -0.00312733       0.00177135       1.00000000       1.50000000       2.00000000       0.00891167       0.01090232       0.01169892      -0.00426279
X       11.40890696      11.69892716      11.90842842       0.84352716      -0.31000763      -0.30730233       0.31292568      -0.01935612       0.00230712      -0.44325020      -0.00206926       0.00365192      -0.00155128       1.00000000       1.50000000       2.00000000      -0.00891167      -0.01090232      -0.01169892      -0.00426279
2
Properties=species:S:1:pos:R:3:quaternions:R:4:old_torques:R:3:torques:R:3:c_diameter[1]:R:1:c_diameter[2]:R:1:c_diameter[3]:R:1:forces:R:3:energies:R:1 separation_distance=2.908750759063574 old_energy=-0.5813160743943455 distance=2.9087507574284945 gb_cutoff=5.0 gb_epsilon=1.0 gb_sigma=1.0 energy=-0.010034541743116502 pbc="F F F"
X       10.00000000      10.00000000      10.00000000       0.36764937      -0.22721644      -0.90135926      -0.02753389       0.30539887       0.43585131      -0.56801270      -0.00701199       0.00455696       0.00731496       1.00000000       1.50000000       2.00000000       0.03434420       0.03296463       0.01347713      -0.01003454
X       11.89133200      11.94166813      11.05528153       0.90942596       0.39032169       0.14095774       0.02691300       0.04117852      -0.89099347       0.10199365      -0.00160687       0.00619611      -0.01165293       1.00000000       1.50000000       2.00000000      -0.03434420      -0.03296463      -0.01347713      -0.01003454
2
Properties=species:S:1:pos:R:3:quaternions:R:4:old_torques:R:3:torques:R:3:c_diameter[1]:R:1:c_diameter[2]:R:1:c_diameter[3]:R:1:forces:R:3:energies:R:1 separation_distance=3.255403278585245 old_energy=-0.4438970423758732 distance=3.2554032801537875 gb_cutoff=5.0 gb_epsilon=1.0 gb_sigma=1.0 energy=-0.002572107776844701 pbc="F F F"
X       10.00000000      10.00000000      10.00000000       0.23587948      -0.77593541      -0.26640134      -0.52087948       0.07154151      -0.44820738       0.20597611       0.00276877      -0.00300322      -0.00037650       1.00000000       1.50000000       2.00000000       0.00573750       0.00517403       0.00672264      -0.00257211
X       11.79653981      11.85210197      11.98489635       0.24875417      -0.17638080       0.77622653      -0.55180028       0.82456684       0.03791065      -0.00977301      -0.00058767       0.00231406      -0.00095458       1.00000000       1.50000000       2.00000000      -0.00573750      -0.00517403      -0.00672264      -0.00257211
2
Properties=species:S:1:pos:R:3:quaternions:R:4:old_torques:R:3:torques:R:3:c_diameter[1]:R:1:c_diameter[2]:R:1:c_diameter[3]:R:1:forces:R:3:energies:R:1 separation_distance=2.9218288914574386 old_energy=-0.18177082591304253 distance=2.9218288951269815 gb_cutoff=5.0 gb_epsilon=1.0 gb_sigma=1.0 energy=-0.007236290354107811 pbc="F F F"
X       10.00000000      10.00000000      10.00000000       0.13428250      -0.17045601      -0.43580986       0.87348883       0.06624010      -0.21241765       0.20530865       0.00498073      -0.00013708      -0.00851605       1.00000000       1.50000000       2.00000000       0.02344916       0.01394418       0.02079187      -0.00723629
X       11.84080252      11.30123782      11.85884650       0.31761549       0.75954516       0.54933784       0.14296674      -0.06246189       0.29743989       0.15719572      -0.00384565       0.00545173       0.00367161       1.00000000       1.50000000       2.00000000      -0.02344916      -0.01394418      -0.02079187      -0.00723629
2
Properties=species:S:1:pos:R:3:quaternions:R:4:old_torques:R:3:torques:R:3:c_diameter[1]:R:1:c_diameter[2]:R:1:c_diameter[3]:R:1:forces:R:3:energies:R:1 separation_distance=2.5535328485829636 old_energy=-0.7141527972150867 distance=2.553532852453764 gb_cutoff=5.0 gb_epsilon=1.0 gb_sigma=1.0 energy=-0.05900116105447306 pbc="F F F"
X       10.00000000      10.00000000      10.00000000       0.31132187       0.19357211      -0.80651442       0.46383512       0.01804595      -0.16573278       0.54777659       0.09453358      -0.02329138      -0.05448347       1.00000000       1.50000000       2.00000000       0.21589838       0.13771677       0.29585389      -0.05900116
X       11.59171602      11.15658282      11.62766284       0.48013942      -0.61553778       0.35997075      -0.51088202       0.23030627       0.57797908      -0.62130127       0.02348947      -0.09621423       0.02398510       1.00000000       1.50000000       2.00000000      -0.21589838      -0.13771677      -0.29585389      -0.05900116
2
Properties=species:S:1:pos:R:3:quaternions:R:4:old_torques:R:3:torques:R:3:c_diameter[1]:R:1:c_diameter[2]:R:1:c_diameter[3]:R:1:forces:R:3:energies:R:1 separation_distance=2.5164278656156065 old_energy=-0.6742997598190799 distance=2.516427863917699 gb_cutoff=5.0 gb_epsilon=1.0 gb_sigma=1.0 energy=-0.03203132251979899 pbc="F F F"
X       10.00000000      10.00000000      10.00000000       0.44795512      -0.57731391      -0.12990616       0.67020090      -0.18068453      -1.27942313      -0.28782863       0.02824258      -0.01176476      -0.00562327       1.00000000       1.50000000       2.00000000       0.08561667       0.05859568       0.16708749      -0.03203132
X       11.20406797      11.31970069      11.77229219       0.50791236      -0.65044271      -0.10265022      -0.55534876       0.03762307      -0.17778571       0.52133012       0.08841424      -0.03768218      -0.03681193       1.00000000       1.50000000       2.00000000      -0.08561667      -0.05859568      -0.16708749      -0.03203132
2
Properties=species:S:1:pos:R:3:quaternions:R:4:old_torques:R:3:torques:R:3:c_diameter[1]:R:1:c_diameter[2]:R:1:c_diameter[3]:R:1:forces:R:3:energies:R:1 separation_distance=2.9979394637357752 old_energy=-0.2795073129884388 distance=2.9979394662506587 gb_cutoff=5.0 gb_epsilon=1.0 gb_sigma=1.0 energy=-0.011981185792377065 pbc="F F F"
X       10.00000000      10.00000000      10.00000000       0.27761468       0.86396810       0.33106614      -0.25862022       0.07408380       0.31688003      -0.33120943      -0.01513417       0.01862230      -0.01158095       1.00000000       1.50000000       2.00000000       0.03826702       0.04092149       0.02548269      -0.01198119
X       11.71187906      11.95110045      11.50010605       0.41564861       0.30499495      -0.24759055       0.82031289      -0.10363725       0.75225967       0.20358869       0.00346687      -0.00484098       0.00697080       1.00000000       1.50000000       2.00000000      -0.03826702      -0.04092149      -0.02548269      -0.01198119
2
Properties=species:S:1:pos:R:3:quaternions:R:4:old_torques:R:3:torques:R:3:c_diameter[1]:R:1:c_diameter[2]:R:1:c_diameter[3]:R:1:forces:R:3:energies:R:1 separation_distance=2.86747362795374 old_energy=-0.5537051683485582 distance=2.8674736274211154 gb_cutoff=5.0 gb_epsilon=1.0 gb_sigma=1.0 energy=-0.006349903382842431 pbc="F F F"
X       10.00000000      10.00000000      10.00000000       0.06969273       0.26430046      -0.36129383       0.89149030      -0.18954250       0.42281731      -2.56267706      -0.00251372       0.00244744      -0.00278686       1.00000000       1.50000000       2.00000000       0.01786416       0.01962598       0.01248475      -0.00634990
X       11.73365234      11.84218795      11.35025854       0.21119314      -0.52835851       0.82135314      -0.04017167      -0.76107977       7.53629413      -1.27081090      -0.00098716       0.00002957       0.00390235       1.00000000       1.50000000       2.00000000      -0.01786416      -0.01962598      -0.01248475      -0.00634990
2
Properties=species:S:1:pos:R:3:quaternions:R:4:old_torques:R:3:torques:R:3:c_diameter[1]:R:1:c_diameter[2]:R:1:c_diameter[3]:R:1:forces:R:3:energies:R:1 separation_distance=2.8226685905261313 old_energy=-0.46757469958453485 distance=2.8226685901515345 gb_cutoff=5.0 gb_epsilon=1.0 gb_sigma=1.0 energy=-0.011355348783222733 pbc="F F F"
X       10.00000000      10.00000000      10.00000000       0.19887838      -0.42551064      -0.06897538       0.88013095       0.06662609      -0.71182555       0.18665332       0.00868412      -0.00639565      -0.00826539       1.00000000       1.50000000       2.00000000       0.03517911       0.02975083       0.03554507      -0.01135535
X       11.47541133      11.73326236      11.66925761       0.08164302       0.34949473      -0.72560288       0.58710163       0.42530281      -0.46657095       0.54655363       0.00326302       0.01267504      -0.00881453       1.00000000       1.50000000       2.00000000      -0.03517911      -0.02975083      -0.03554507      -0.01135535
2
Properties=species:S:1:pos:R:3:quaternions:R:4:old_torques:R:3:torques:R:3:c_diameter[1]:R:1:c_diameter[2]:R:1:c_diameter[3]:R:1:forces:R:3:energies:R:1 separation_distance=2.6576922208463882 old_energy=-0.555335757522779 distance=2.6576922213995653 gb_cutoff=5.0 gb_epsilon=1.0 gb_sigma=1.0 energy=-0.010589887524919331 pbc="F F F"
X       10.00000000      10.00000000      10.00000000       0.22263071       0.66950680       0.60529673       0.36852691       0.08415534      -0.28141993       0.56596758      -0.00536941      -0.00278722       0.00905285       1.00000000       1.50000000       2.00000000       0.02053649       0.03828196       0.03105626      -0.01058989
X       11.01437089      11.75288940      11.72097600       0.16495154       0.15631072      -0.89995956      -0.37206282       0.03992112       0.05602440      -0.73875924      -0.00607473       0.00662746      -0.00621894       1.00000000       1.50000000       2.00000000      -0.02053649      -0.03828196      -0.03105626      -0.01058989
2
Properties=species:S:1:pos:R:3:quaternions:R:4:old_torques:R:3:torques:R:3:c_diameter[1]:R:1:c_diameter[2]:R:1:c_diameter[3]:R:1:forces:R:3:energies:R:1 separation_distance=2.918332438903405 old_energy=-0.5822093405116678 distance=2.9183324404334856 gb_cutoff=5.0 gb_epsilon=1.0 gb_sigma=1.0 energy=-0.013852482704310557 pbc="F F F"
X       10.00000000      10.00000000      10.00000000       0.72434349       0.52180217       0.01596065      -0.45032684       0.42052632       0.22221854       0.30533491       0.00226282      -0.01630098       0.01330623       1.00000000       1.50000000       2.00000000       0.01851790       0.04506497       0.05636763      -0.01385248
X       11.50993673      11.62832910      11.89348875       0.84237205      -0.33142390       0.41790515      -0.07695976       0.14382183      -1.15904559      -0.49321424       0.00419222      -0.03374714       0.02458580       1.00000000       1.50000000       2.00000000      -0.01851790      -0.04506497      -0.05636763      -0.01385248
2
Properties=species:S:1:pos:R:3:quaternions:R:4:old_torques:R:3:torques:R:3:c_diameter[1]:R:1:c_diameter[2]:R:1:c_diameter[3]:R:1:forces:R:3:energies:R:1 separation_distance=3.0507215603579017 old_energy=-0.19053657366586557 distance=3.0507215594506163 gb_cutoff=5.0 gb_epsilon=1.0 gb_sigma=1.0 energy=-0.004539284557258184 pbc="F F F"
X       10.00000000      10.00000000      10.00000000       0.07150993      -0.60851183      -0.70531538      -0.35655279       0.08739328      -0.08878606       0.25680185      -0.00073676      -0.00360395       0.00274348       1.00000000       1.50000000       2.00000000       0.01141458       0.01187604       0.01095210      -0.00453928
X       11.76983197      11.91820361      11.57958594       0.07999621      -0.35457612       0.04066507       0.93071087      -0.02419357       0.11933456       0.21925503       0.00298589       0.00225088      -0.00362038       1.00000000       1.50000000       2.00000000      -0.01141458      -0.01187604      -0.01095210      -0.00453928
2
Properties=species:S:1:pos:R:3:quaternions:R:4:old_torques:R:3:torques:R:3:c_diameter[1]:R:1:c_diameter[2]:R:1:c_diameter[3]:R:1:forces:R:3:energies:R:1 separation_distance=2.5453375610919484 old_energy=-0.6663660921584968 distance=2.545337556358035 gb_cutoff=5.0 gb_epsilon=1.0 gb_sigma=1.0 energy=-0.02188453784714688 pbc="F F F"
X       10.00000000      10.00000000      10.00000000       0.53311028       0.81878974       0.21301276      -0.00153582      -0.11788796      -0.56257813      -0.54076570      -0.00533484       0.03442714      -0.01831836       1.00000000       1.50000000       2.00000000       0.09985328       0.04059591       0.06233727      -0.02188454
X       11.92714725      11.00523938      11.32451521       0.53852322       0.04501876      -0.50185439       0.67535785       0.19023382       1.28448026      -0.36317387       0.01422881      -0.02230304      -0.00382379       1.00000000       1.50000000       2.00000000      -0.09985328      -0.04059591      -0.06233727      -0.02188454
2
Properties=species:S:1:pos:R:3:quaternions:R:4:old_torques:R:3:torques:R:3:c_diameter[1]:R:1:c_diameter[2]:R:1:c_diameter[3]:R:1:forces:R:3:energies:R:1 separation_distance=3.056543444786502 old_energy=-0.4760969918500553 distance=3.0565434417314044 gb_cutoff=5.0 gb_epsilon=1.0 gb_sigma=1.0 energy=-0.004072256610966902 pbc="F F F"
X       10.00000000      10.00000000      10.00000000       0.44482168      -0.02566202       0.38208159      -0.80962262      -0.02022570      -0.04390730      -0.07606797      -0.00349455       0.00221511       0.00068717       1.00000000       1.50000000       2.00000000       0.00917590       0.00996052       0.01093885      -0.00407226
X       11.85643040      11.44365478      11.95243050       0.56822682      -0.34688189      -0.74604628       0.01435926       0.02707533      -0.02284272      -0.09779837      -0.00016074      -0.00460703       0.00455701       1.00000000       1.50000000       2.00000000      -0.00917590      -0.00996052      -0.01093885      -0.00407226
2
Properties=species:S:1:pos:R:3:quaternions:R:4:old_torques:R:3:torques:R:3:c_diameter[1]:R:1:c_diameter[2]:R:1:c_diameter[3]:R:1:forces:R:3:energies:R:1 separation_distance=2.7164806647997897 old_energy=-0.5883360623046904 distance=2.716480661195177 gb_cutoff=5.0 gb_epsilon=1.0 gb_sigma=1.0 energy=-0.015169578971986591 pbc="F F F"
X       10.00000000      10.00000000      10.00000000       0.85712597      -0.15625595      -0.31180198       0.37907609       0.36670146       0.39728155      -0.66650741      -0.01110171       0.00775090       0.00241788       1.00000000       1.50000000       2.00000000       0.04593898       0.04566949       0.04927615      -0.01516958
X       11.53979123      11.71720300      11.43510418       0.46598957      -0.63817042      -0.14626251      -0.59514663       0.03162609      -0.16643717      -0.10386530       0.03017838      -0.01769867      -0.01098295       1.00000000       1.50000000       2.00000000      -0.04593898      -0.04566949      -0.04927615      -0.01516958
2
Properties=species:S:1:pos:R:3:quaternions:R:4:old_torques:R:3:torques:R:3:c_diameter[1]:R:1:c_diameter[2]:R:1:c_diameter[3]:R:1:forces:R:3:energies:R:1 separation_distance=2.876677367379096 old_energy=-0.47143045961032914 distance=2.876677372604325 gb_cutoff=5.0 gb_epsilon=1.0 gb_sigma=1.0 energy=-0.00739631906176014 pbc="F F F"
X       10.00000000      10.00000000      10.00000000       0.58107610      -0.53398600      -0.40633559       0.46054414      -0.31073305      -0.68719095      -0.66378011      -0.00812639      -0.00132173       0.00658144       1.00000000       1.50000000       2.00000000       0.01962990       0.01835343       0.02236700      -0.00739632
X       11.94738040      11.25716314      11.70367929       0.05412812       0.65244247      -0.16722958      -0.73717246       0.09294071      -0.71269560       0.31225063       0.00497699      -0.00879227       0.00448169       1.00000000       1.50000000       2.00000000      -0.01962990      -0.01835343      -0.02236700      -0.00739632
2
Properties=species:S:1:pos:R:3:quaternions:R:4:old_torques:R:3:torques:R:3:c_diameter[1]:R:1:c_diameter[2]:R:1:c_diameter[3]:R:1:forces:R:3:energies:R:1 separation_distance=3.1100953326488447 old_energy=-0.20950803163716564 distance=3.1100953329905843 gb_cutoff=5.0 gb_epsilon=1.0 gb_sigma=1.0 energy=-0.010997957417525368 pbc="F F F"
X       10.00000000      10.00000000      10.00000000       0.53758483       0.05270781       0.63475538       0.55254868       0.19470317       0.11709215      -0.18299892       0.01413283      -0.01296219      -0.00687701       1.00000000       1.50000000       2.00000000       0.03411859       0.02832995       0.03418229      -0.01099796
X       11.88737764      11.91778742      11.55967626       0.63413031       0.57683585       0.47484764      -0.19914535      -0.00482979       0.27236943       0.00633649       0.00723598       0.00166126      -0.00508588       1.00000000       1.50000000       2.00000000      -0.03411859      -0.02832995      -0.03418229      -0.01099796
2
Properties=species:S:1:pos:R:3:quaternions:R:4:old_torques:R:3:torques:R:3:c_diameter[1]:R:1:c_diameter[2]:R:1:c_diameter[3]:R:1:forces:R:3:energies:R:1 separation_distance=2.840855770254759 old_energy=-0.32942659137003993 distance=2.840855769778717 gb_cutoff=5.0 gb_epsilon=1.0 gb_sigma=1.0 energy=-0.015451719474325802 pbc="F F F"
X       10.00000000      10.00000000      10.00000000       0.46198159      -0.60898966       0.02919586      -0.64409022       0.00159039       0.09458632      -0.15608918       0.01638393      -0.01931804       0.00870112       1.00000000       1.50000000       2.00000000       0.03323133       0.05220712       0.05617846      -0.01545172
X       11.49646943      11.94609075      11.42960538       0.76474823       0.01430376      -0.61357844       0.19615567       0.23314372       0.65269524      -0.46322264       0.01830887      -0.01724362       0.00475405       1.00000000       1.50000000       2.00000000      -0.03323133      -0.05220712      -0.05617846      -0.01545172
2
Properties=species:S:1:pos:R:3:quaternions:R:4:old_torques:R:3:torques:R:3:c_diameter[1]:R:1:c_diameter[2]:R:1:c_diameter[3]:R:1:forces:R:3:energies:R:1 separation_distance=2.968970978632247 old_energy=-0.6524214193744949 distance=2.9689709783056544 gb_cutoff=5.0 gb_epsilon=1.0 gb_sigma=1.0 energy=-0.014184741140918479 pbc="F F F"
X       10.00000000      10.00000000      10.00000000       0.55652252      -0.34763427       0.29122801       0.69614606       0.02446828      -0.04077509       0.12785930       0.02207812       0.00951276      -0.01329978       1.00000000       1.50000000       2.00000000       0.02260981       0.04331134       0.05761021      -0.01418474
X       11.08319040      11.94998470      11.95934859       0.73282580      -0.44581712       0.49840445      -0.12572370      -0.03441134      -0.39643561      -0.04308866       0.00539889      -0.02761509       0.01612543       1.00000000       1.50000000       2.00000000      -0.02260981      -0.04331134      -0.05761021      -0.01418474
2
Properties=species:S:1:pos:R:3:quaternions:R:4:old_torques:R:3:torques:R:3:c_diameter[1]:R:1:c_diameter[2]:R:1:c_diameter[3]:R:1:forces:R:3:energies:R:1 separation_distance=3.13141866141194 old_energy=-0.39412835986688766 distance=3.1314186612794965 gb_cutoff=5.0 gb_epsilon=1.0 gb_sigma=1.0 energy=-0.005471372513948274 pbc="F F F"
X       10.00000000      10.00000000      10.00000000       0.14380439      -0.94714538       0.27507820      -0.08104263      -2.52900403      -2.58422919       1.64027119       0.00021273       0.00406505      -0.00139774       1.00000000       1.50000000       2.00000000       0.01445949       0.01491096       0.01325590      -0.00547137
X       11.55227272      11.91314981      11.93289680       0.03394355      -0.15312027       0.35820755      -0.92037458       0.57533218      -0.89919184      -2.39694932      -0.00367357       0.00330689      -0.00311955       1.00000000       1.50000000       2.00000000      -0.01445949      -0.01491096      -0.01325590      -0.00547137
2
Properties=species:S:1:pos:R:3:quaternions:R:4:old_torques:R:3:torques:R:3:c_diameter[1]:R:1:c_diameter[2]:R:1:c_diameter[3]:R:1:forces:R:3:energies:R:1 separation_distance=2.4445203514482166 old_energy=-0.827737240948176 distance=2.44452035161913 gb_cutoff=5.0 gb_epsilon=1.0 gb_sigma=1.0 energy=-0.04911296257239343 pbc="F F F"
X       10.00000000      10.00000000      10.00000000       0.71973020      -0.19078782       0.17663083       0.64373131      -0.02358781      -0.01918699       0.34560370      -0.10418190       0.07415131      -0.01372495       1.00000000       1.50000000       2.00000000       0.15198382       0.23765065       0.14244878      -0.04911296
X       11.00889333      11.92465058      11.11961339       0.45037362      -0.55445357      -0.57567561      -0.39792263      -0.02148329       0.07093452      -0.30395276       0.11226918      -0.04770381      -0.03902664       1.00000000       1.50000000       2.00000000      -0.15198382      -0.23765065      -0.14244878      -0.04911296
2
Properties=species:S:1:pos:R:3:quaternions:R:4:old_torques:R:3:torques:R:3:c_diameter[1]:R:1:c_diameter[2]:R:1:c_diameter[3]:R:1:forces:R:3:energies:R:1 separation_distance=3.0070090046987827 old_energy=-0.626134346439916 distance=3.007009010849734 gb_cutoff=5.0 gb_epsilon=1.0 gb_sigma=1.0 energy=-0.006845888713271015 pbc="F F F"
X       10.00000000      10.00000000      10.00000000       0.12098388      -0.58245841      -0.79492146       0.11918461      -0.38968943       0.33014355       0.17586742      -0.01368286      -0.00150700       0.00900124       1.00000000       1.50000000       2.00000000       0.01142278       0.02399435       0.01835881      -0.00684589
X       11.52235366      11.87298566      11.79345121       0.62904655       0.06821641      -0.41930485       0.65102258       0.02725767       0.16500265      -0.12251312       0.00503595      -0.00595540       0.00613195       1.00000000       1.50000000       2.00000000      -0.01142278      -0.02399435      -0.01835881      -0.00684589
2
Properties=species:S:1:pos:R:3:quaternions:R:4:old_torques:R:3:torques:R:3:c_diameter[1]:R:1:c_diameter[2]:R:1:c_diameter[3]:R:1:forces:R:3:energies:R:1 separation_distance=2.364883142445553 old_energy=-0.8927502931290173 distance=2.3648831379646533 gb_cutoff=5.0 gb_epsilon=1.0 gb_sigma=1.0 energy=-0.026692199109656208 pbc="F F F"
X       10.00000000      10.00000000      10.00000000       0.45732600      -0.37548311      -0.40790775       0.69532484      -0.07013146      -0.32802220      -0.34953285      -0.00237815      -0.03098912       0.02808880       1.00000000       1.50000000       2.00000000       0.09080835       0.09047632       0.08851310      -0.02669220
X       11.52563943      11.23673010      11.31741992       0.16636181       0.38361796      -0.55925157      -0.71582029      -0.04934777       0.38862715      -0.02349555      -0.00735034       0.01558278      -0.00235999       1.00000000       1.50000000       2.00000000      -0.09080835      -0.09047632      -0.08851310      -0.02669220
2
Properties=species:S:1:pos:R:3:quaternions:R:4:old_torques:R:3:torques:R:3:c_diameter[1]:R:1:c_diameter[2]:R:1:c_diameter[3]:R:1:forces:R:3:energies:R:1 separation_distance=2.7619195633910385 old_energy=-0.6605549844954152 distance=2.7619195638141987 gb_cutoff=5.0 gb_epsilon=1.0 gb_sigma=1.0 energy=-0.02747723746233035 pbc="F F F"
X       10.00000000      10.00000000      10.00000000       0.54177902      -0.08794706      -0.82094360      -0.15745609      -0.11174685      -0.18140418       0.24584848      -0.00772163      -0.00131466       0.02480184       1.00000000       1.50000000       2.00000000       0.09364613       0.12296872       0.05164616      -0.02747724
X       11.79794926      11.71172810      11.21060524       0.67433562      -0.38719073       0.07989710      -0.62367561      -0.00063371       0.30432568       0.19013509      -0.05274077       0.02182599       0.03599297       1.00000000       1.50000000       2.00000000      -0.09364613      -0.12296872      -0.05164616      -0.02747724
2
Properties=species:S:1:pos:R:3:quaternions:R:4:old_torques:R:3:torques:R:3:c_diameter[1]:R:1:c_diameter[2]:R:1:c_diameter[3]:R:1:forces:R:3:energies:R:1 separation_distance=2.6721497836661174 old_energy=-0.702820704012216 distance=2.6721497907664506 gb_cutoff=5.0 gb_epsilon=1.0 gb_sigma=1.0 energy=-0.017969289709712545 pbc="F F F"
X       10.00000000      10.00000000      10.00000000       0.73184239       0.44203626       0.46073434       0.23819010      -0.03102327       0.86112829      -0.23968029      -0.01340429       0.00161673       0.00713028       1.00000000       1.50000000       2.00000000       0.03854447       0.05764116       0.07161339      -0.01796929
X       11.44652444      11.33982127      11.80356051       0.45821661       0.67732262      -0.16667456      -0.55090035      -0.07677941       0.07206609      -0.65868263       0.00539411      -0.03568998       0.02460638       1.00000000       1.50000000       2.00000000      -0.03854447      -0.05764116      -0.07161339      -0.01796929
2
Properties=species:S:1:pos:R:3:quaternions:R:4:old_torques:R:3:torques:R:3:c_diameter[1]:R:1:c_diameter[2]:R:1:c_diameter[3]:R:1:forces:R:3:energies:R:1 separation_distance=3.0920917338429006 old_energy=-0.5721719304016097 distance=3.0920917365619123 gb_cutoff=5.0 gb_epsilon=1.0 gb_sigma=1.0 energy=-0.004761871326474932 pbc="F F F"
X       10.00000000      10.00000000      10.00000000       0.73610065       0.30216399      -0.60516358       0.02509585       0.73422681      -5.88217777      -0.70616061       0.00691426      -0.00677989      -0.00123078       1.00000000       1.50000000       2.00000000       0.01147964       0.01040509       0.01420286      -0.00476187
X       11.74488958      11.70540617      11.89946873       0.26850673       0.33254527      -0.35919212      -0.82963775       0.30660969      -5.38424266      -0.52789869      -0.00245676       0.00380270      -0.00019094       1.00000000       1.50000000       2.00000000      -0.01147964      -0.01040509      -0.01420286      -0.00476187
2
Properties=species:S:1:pos:R:3:quaternions:R:4:old_torques:R:3:torques:R:3:c_diameter[1]:R:1:c_diameter[2]:R:1:c_diameter[3]:R:1:forces:R:3:energies:R:1 separation_distance=2.8041841552028006 old_energy=-0.5211149068650395 distance=2.8041841528299907 gb_cutoff=5.0 gb_epsilon=1.0 gb_sigma=1.0 energy=-0.03891027327920005 pbc="F F F"
X       10.00000000      10.00000000      10.00000000       0.92025946      -0.31791642       0.05055518      -0.22247664       0.00994613       0.07419150       0.56370493      -0.03145823       0.04533069      -0.03740677       1.00000000       1.50000000       2.00000000       0.13385502       0.16841620       0.11219128      -0.03891027
X       11.08755988      11.99406432      11.64449681       0.69471819      -0.37785819       0.23003057       0.56716467      -0.19729560      -0.37614466      -0.55478376      -0.02178505       0.05277873      -0.04634604       1.00000000       1.50000000       2.00000000      -0.13385502      -0.16841620      -0.11219128      -0.03891027
2
Properties=species:S:1:pos:R:3:quaternions:R:4:old_torques:R:3:torques:R:3:c_diameter[1]:R:1:c_diameter[2]:R:1:c_diameter[3]:R:1:forces:R:3:energies:R:1 separation_distance=3.0223903583656377 old_energy=-0.3298831584153487 distance=3.0223903577125895 gb_cutoff=5.0 gb_epsilon=1.0 gb_sigma=1.0 energy=-0.010160534518526996 pbc="F F F"
X       10.00000000      10.00000000      10.00000000       0.27748469      -0.23704247      -0.73414328       0.57257903      -0.07776129      -0.95442319      -0.13485390       0.00716471      -0.01267270       0.00996500       1.00000000       1.50000000       2.00000000       0.01983792       0.03061050       0.03555373      -0.01016053
X       11.67110120      11.69119199      11.86604767       0.76223792       0.32623379       0.21458976      -0.51625198      -0.06970452      -0.09634658      -0.45013837      -0.00415719      -0.00972267       0.00763852       1.00000000       1.50000000       2.00000000      -0.01983792      -0.03061050      -0.03555373      -0.01016053
2
Properties=species:S:1:pos:R:3:quaternions:R:4:old_torques:R:3:torques:R:3:c_diameter[1]:R:1:c_diameter[2]:R:1:c_diameter[3]:R:1:forces:R:3:energies:R:1 separation_distance=3.095267206113152 old_energy=-0.5941384256139122 distance=3.0952672041909266 gb_cutoff=5.0 gb_epsilon=1.0 gb_sigma=1.0 energy=-0.010499724884668282 pbc="F F F"
X       10.00000000      10.00000000      10.00000000       0.22807002       0.93586633       0.20258401      -0.17634626       0.21203546       0.74867838      -0.23914615      -0.01153635       0.02541894      -0.01029862       1.00000000       1.50000000       2.00000000       0.04301051       0.02880328       0.01768898      -0.01049972
X       11.71079270      11.99511492      11.63504858       0.05162046      -0.08728410      -0.87340822       0.47631386      -0.29993830      -0.83670544      -0.24272321      -0.00026687       0.01464316      -0.02623586       1.00000000       1.50000000       2.00000000      -0.04301051      -0.02880328      -0.01768898      -0.01049972
2
Properties=species:S:1:pos:R:3:quaternions:R:4:old_torques:R:3:torques:R:3:c_diameter[1]:R:1:c_diameter[2]:R:1:c_diameter[3]:R:1:forces:R:3:energies:R:1 separation_distance=2.6301115070533028 old_energy=-0.5801916598622262 distance=2.630111510644381 gb_cutoff=5.0 gb_epsilon=1.0 gb_sigma=1.0 energy=-0.021889571450293566 pbc="F F F"
X       10.00000000      10.00000000      10.00000000       0.59569781      -0.19038431       0.08659549       0.77549930       0.09302649       0.74072999      -0.27796813      -0.04168854       0.01669650       0.00497187       1.00000000       1.50000000       2.00000000       0.06362965       0.09888317       0.03969013      -0.02188957
X       11.33213352      11.96989407      11.12357652       0.66376121       0.26164709       0.69049330      -0.11908345      -0.32507915       0.66372433       0.67698683       0.00877109       0.00192373       0.00141004       1.00000000       1.50000000       2.00000000      -0.06362965      -0.09888317      -0.03969013      -0.02188957
2
Properties=species:S:1:pos:R:3:quaternions:R:4:old_torques:R:3:torques:R:3:c_diameter[1]:R:1:c_diameter[2]:R:1:c_diameter[3]:R:1:forces:R:3:energies:R:1 separation_distance=2.779916658636822 old_energy=-0.4025075683996484 distance=2.779916660356071 gb_cutoff=5.0 gb_epsilon=1.0 gb_sigma=1.0 energy=-0.018326983786568746 pbc="F F F"
X       10.00000000      10.00000000      10.00000000       0.05304128      -0.30035164      -0.94729760      -0.09799378       0.78045342       0.41534313       2.21425771      -0.00914047       0.01228168      -0.00666915       1.00000000       1.50000000       2.00000000       0.06924600       0.05768268       0.04178785      -0.01832698
X       11.64338940      11.67868000      11.48635170       0.24668400       0.00575200      -0.00743963       0.96905035       0.38390070      -7.41824463      -1.00363457      -0.00644786       0.02196852      -0.01477762       1.00000000       1.50000000       2.00000000      -0.06924600      -0.05768268      -0.04178785      -0.01832698
2
Properties=species:S:1:pos:R:3:quaternions:R:4:old_torques:R:3:torques:R:3:c_diameter[1]:R:1:c_diameter[2]:R:1:c_diameter[3]:R:1:forces:R:3:energies:R:1 separation_distance=3.19048226153453 old_energy=-0.22911360932501698 distance=3.190482260860449 gb_cutoff=5.0 gb_epsilon=1.0 gb_sigma=1.0 energy=-0.004315973746427669 pbc="F F F"
X       10.00000000      10.00000000      10.00000000       0.73856477      -0.27500810       0.57913870       0.20854494      -0.32728632       0.34431612       0.28721456       0.00611420      -0.00770224       0.00031448       1.00000000       1.50000000       2.00000000       0.00937593       0.00854154       0.01402722      -0.00431597
X       11.80309473      11.77603495      11.94260812       0.01615317       0.50029697      -0.04436310      -0.86456575      -0.00848582       0.05317855       0.20483884       0.00220578       0.00062358      -0.00156525       1.00000000       1.50000000       2.00000000      -0.00937593      -0.00854154      -0.01402722      -0.00431597
2
Properties=species:S:1:pos:R:3:quaternions:R:4:old_torques:R:3:torques:R:3:c_diameter[1]:R:1:c_diameter[2]:R:1:c_diameter[3]:R:1:forces:R:3:energies:R:1 separation_distance=2.9139541236287925 old_energy=-0.39376622071744655 distance=2.913954127285031 gb_cutoff=5.0 gb_epsilon=1.0 gb_sigma=1.0 energy=-0.012114554411381921 pbc="F F F"
X       10.00000000      10.00000000      10.00000000       0.78033595       0.55031910       0.29689832       0.00872261       0.01069274      -0.75719253       0.05345694      -0.00835211       0.01198523       0.00416769       1.00000000       1.50000000       2.00000000       0.04528899       0.02250189       0.03462492      -0.01211455
X       11.98776083      11.15816836      11.78845788       0.51611981       0.68908505       0.37687133      -0.34168719       0.39343015       1.05362461      -0.39650272       0.00820991       0.00018616      -0.01189159       1.00000000       1.50000000       2.00000000      -0.04528899      -0.02250189      -0.03462492      -0.01211455
2
Properties=species:S:1:pos:R:3:quaternions:R:4:old_torques:R:3:torques:R:3:c_diameter[1]:R:1:c_diameter[2]:R:1:c_diameter[3]:R:1:forces:R:3:energies:R:1 separation_distance=2.7663314105689967 old_energy=-0.28344611651683854 distance=2.766331408914413 gb_cutoff=5.0 gb_epsilon=1.0 gb_sigma=1.0 energy=-0.01018338190035492 pbc="F F F"
X       10.00000000      10.00000000      10.00000000       0.32333819      -0.26546523      -0.48866407       0.76562919       0.01386172       0.00134388       0.08464988       0.00450159      -0.00760159       0.00033001       1.00000000       1.50000000       2.00000000       0.02430419       0.02577924       0.03633519      -0.01018338
X       11.57757450      11.32173222      11.84847832       0.32560821       0.52791844      -0.24357411      -0.74562261      -0.08360629       0.14457874       0.42602815      -0.00412856      -0.00479411       0.00821503       1.00000000       1.50000000       2.00000000      -0.02430419      -0.02577924      -0.03633519      -0.01018338
2
Properties=species:S:1:pos:R:3:quaternions:R:4:old_torques:R:3:torques:R:3:c_diameter[1]:R:1:c_diameter[2]:R:1:c_diameter[3]:R:1:forces:R:3:energies:R:1 separation_distance=3.116693315763924 old_energy=-0.60523122084633 distance=3.1166933142091944 gb_cutoff=5.0 gb_epsilon=1.0 gb_sigma=1.0 energy=-0.007257549365126059 pbc="F F F"
X       10.00000000      10.00000000      10.00000000       0.22256964      -0.08667796      -0.66774299       0.70503119       0.02931298      -0.17609700       0.14873953       0.00686500       0.00154769      -0.00715581       1.00000000       1.50000000       2.00000000       0.02185974       0.01128271       0.02438464      -0.00725755
X       11.71907053      11.68339811      11.98109680       0.69045475       0.61343746      -0.37688557       0.07017116      -0.33688186       0.13600728       0.01717399       0.01183192      -0.00016035      -0.01024706       1.00000000       1.50000000       2.00000000      -0.02185974      -0.01128271      -0.02438464      -0.00725755
2
Properties=species:S:1:pos:R:3:quaternions:R:4:old_torques:R:3:torques:R:3:c_diameter[1]:R:1:c_diameter[2]:R:1:c_diameter[3]:R:1:forces:R:3:energies:R:1 separation_distance=2.5736228163050963 old_energy=-0.5269254337841555 distance=2.573622822787923 gb_cutoff=5.0 gb_epsilon=1.0 gb_sigma=1.0 energy=-0.011077251104515287 pbc="F F F"
X       10.00000000      10.00000000      10.00000000       0.16804875       0.24904455      -0.16520603      -0.93938458      -0.21021604       0.41249633       0.71463670      -0.00177099       0.00293089       0.00220502       1.00000000       1.50000000       2.00000000       0.04511842       0.02132725       0.02548400      -0.01107725
X       11.95901393      11.32085284      11.02036593       0.54075510      -0.78814379      -0.06442693      -0.28681434      -0.02353198      -0.24560924       0.07396795       0.01367001      -0.00681709      -0.02001944       1.00000000       1.50000000       2.00000000      -0.04511842      -0.02132725      -0.02548400      -0.01107725
2
Properties=species:S:1:pos:R:3:quaternions:R:4:old_torques:R:3:torques:R:3:c_diameter[1]:R:1:c_diameter[2]:R:1:c_diameter[3]:R:1:forces:R:3:energies:R:1 separation_distance=2.915625276030926 old_energy=-0.6442993340615478 distance=2.9156252735919597 gb_cutoff=5.0 gb_epsilon=1.0 gb_sigma=1.0 energy=-0.015332650473064301 pbc="F F F"
X       10.00000000      10.00000000      10.00000000       0.92234468      -0.29374882       0.25094310      -0.00441300       0.04417745      -0.62209209      -0.63120645       0.00082003       0.02481207      -0.01955050       1.00000000       1.50000000       2.00000000       0.06139862       0.03047482       0.04620149      -0.01533265
X       11.72014684      11.44966081      11.85484477       0.87127517       0.47620533      -0.10586526      -0.05385737       0.58600221       2.90226184       0.72433678       0.00963041       0.00959949      -0.01703552       1.00000000       1.50000000       2.00000000      -0.06139862      -0.03047482      -0.04620149      -0.01533265
2
Properties=species:S:1:pos:R:3:quaternions:R:4:old_torques:R:3:torques:R:3:c_diameter[1]:R:1:c_diameter[2]:R:1:c_diameter[3]:R:1:forces:R:3:energies:R:1 separation_distance=3.2807038995973805 old_energy=-0.2526445241783658 distance=3.280703900688431 gb_cutoff=5.0 gb_epsilon=1.0 gb_sigma=1.0 energy=-0.00708092487738133 pbc="F F F"
X       10.00000000      10.00000000      10.00000000       0.40895978      -0.66570981      -0.44706614       0.43556195      -0.45334474      -0.56875655      -0.23937144      -0.00904993      -0.00130786       0.00796994       1.00000000       1.50000000       2.00000000       0.01492334       0.02358361       0.01908079      -0.00708092
X       11.86103230      11.82491159      11.99230383       0.86979981      -0.34096220       0.29617692      -0.19867637      -0.00851167      -0.05030076       0.13704318      -0.00311503      -0.00447028       0.00868614       1.00000000       1.50000000       2.00000000      -0.01492334      -0.02358361      -0.01908079      -0.00708092
2
Properties=species:S:1:pos:R:3:quaternions:R:4:old_torques:R:3:torques:R:3:c_diameter[1]:R:1:c_diameter[2]:R:1:c_diameter[3]:R:1:forces:R:3:energies:R:1 separation_distance=2.9336963160769973 old_energy=-0.4425148861808699 distance=2.9336963166831316 gb_cutoff=5.0 gb_epsilon=1.0 gb_sigma=1.0 energy=-0.007948523702369736 pbc="F F F"
X       10.00000000      10.00000000      10.00000000       0.87163595       0.18725819       0.44495539       0.08485191      -0.01159559      -0.22345606       0.20966597      -0.00535804      -0.00776667       0.00664250       1.00000000       1.50000000       2.00000000       0.01982272       0.01713080       0.02801629      -0.00794852
X       11.74136862      11.25684767      11.99863537       0.36515396       0.33742129       0.41149480      -0.76385960       0.43392661      -0.24381491       0.30669927       0.00633203      -0.00140163      -0.00172560       1.00000000       1.50000000       2.00000000      -0.01982272      -0.01713080      -0.02801629      -0.00794852
2
Properties=species:S:1:pos:R:3:quaternions:R:4:old_torques:R:3:torques:R:3:c_diameter[1]:R:1:c_diameter[2]:R:1:c_diameter[3]:R:1:forces:R:3:energies:R:1 separation_distance=2.9191533326362245 old_energy=-0.26180929211001724 distance=2.919153334027446 gb_cutoff=5.0 gb_epsilon=1.0 gb_sigma=1.0 energy=-0.007002321268902538 pbc="F F F"
X       10.00000000      10.00000000      10.00000000       0.18209346      -0.75007705      -0.35760164      -0.52568760       0.02776297      -0.08429940       0.22548591       0.00617716      -0.00310857       0.00003703       1.00000000       1.50000000       2.00000000       0.01103306       0.01838588       0.02519770      -0.00700232
X       11.46627530      11.54536557      11.99583020       0.42450858       0.71307084      -0.31389122      -0.46129681      -0.14486641       0.20762667       0.37787782      -0.00393259      -0.01181807       0.00987161       1.00000000       1.50000000       2.00000000      -0.01103306      -0.01838588      -0.02519770      -0.00700232
2
Properties=species:S:1:pos:R:3:quaternions:R:4:old_torques:R:3:torques:R:3:c_diameter[1]:R:1:c_diameter[2]:R:1:c_diameter[3]:R:1:forces:R:3:energies:R:1 separation_distance=2.875624359152517 old_energy=-0.34255630491563166 distance=2.875624359379192 gb_cutoff=5.0 gb_epsilon=1.0 gb_sigma=1.0 energy=-0.009105967807125378 pbc="F F F"
X       10.00000000      10.00000000      10.00000000       0.22187098       0.28738136      -0.80813699      -0.46378855       0.01816301      -0.12526324      -0.05812816      -0.00813314       0.00703047       0.00011042       1.00000000       1.50000000       2.00000000       0.02735891       0.02831159       0.02231538      -0.00910597
X       11.98985371      11.32828468      11.59541765       0.46815984      -0.50008666      -0.59501339       0.42035552      -0.36927070      -0.50618161      -0.48430520      -0.00739449      -0.00778594       0.01988509       1.00000000       1.50000000       2.00000000      -0.02735891      -0.02831159      -0.02231538      -0.00910597
2
Properties=species:S:1:pos:R:3:quaternions:R:4:old_torques:R:3:torques:R:3:c_diameter[1]:R:1:c_diameter[2]:R:1:c_diameter[3]:R:1:forces:R:3:energies:R:1 separation_distance=2.8256418632489453 old_energy=-0.14002271013501366 distance=2.8256418629830877 gb_cutoff=5.0 gb_epsilon=1.0 gb_sigma=1.0 energy=-0.02322075146769142 pbc="F F F"
X       10.00000000      10.00000000      10.00000000       0.62759301       0.67950628       0.26263068      -0.27463314       0.00132176      -0.02191769      -0.11927241      -0.00236138       0.01835933      -0.04581601       1.00000000       1.50000000       2.00000000       0.10615692       0.07625475       0.03273101      -0.02322075
X       11.85634950      11.84954232      11.05707695       0.83348945      -0.27701481       0.05220313      -0.47521886      -0.00462978       0.01655865      -0.06163411      -0.01770838       0.03309652      -0.00897023       1.00000000       1.50000000       2.00000000      -0.10615692      -0.07625475      -0.03273101      -0.02322075
2
Properties=species:S:1:pos:R:3:quaternions:R:4:old_torques:R:3:torques:R:3:c_diameter[1]:R:1:c_diameter[2]:R:1:c_diameter[3]:R:1:forces:R:3:energies:R:1 separation_distance=2.481299675162756 old_energy=-0.8495635764866889 distance=2.4812996780000343 gb_cutoff=5.0 gb_epsilon=1.0 gb_sigma=1.0 energy=-0.02522391099904173 pbc="F F F"
X       10.00000000      10.00000000      10.00000000       0.05774623      -0.30690165      -0.46797364       0.82672693       0.19672653      -0.65884496       0.24667243       0.03849775      -0.02540224      -0.04390529       1.00000000       1.50000000       2.00000000       0.11615020       0.06112414       0.06498141      -0.02522391
X       11.86330569      11.14184883      11.17521115       0.16724926       0.22536321      -0.91099577      -0.30220161      -0.00473306      -0.45152843       0.01567437      -0.03613257       0.04082301       0.02517227       1.00000000       1.50000000       2.00000000      -0.11615020      -0.06112414      -0.06498141      -0.02522391
2
Properties=species:S:1:pos:R:3:quaternions:R:4:old_torques:R:3:torques:R:3:c_diameter[1]:R:1:c_diameter[2]:R:1:c_diameter[3]:R:1:forces:R:3:energies:R:1 separation_distance=2.8520580455957716 old_energy=-0.20382047268017084 distance=2.8520580440849383 gb_cutoff=5.0 gb_epsilon=1.0 gb_sigma=1.0 energy=-0.015832217873030387 pbc="F F F"
X       10.00000000      10.00000000      10.00000000       0.81047982      -0.41726314       0.34106329      -0.22954249      -0.01366306       0.35192267       0.06677819      -0.00006511      -0.01496311       0.01066488       1.00000000       1.50000000       2.00000000       0.04937837       0.04896419       0.04941747      -0.01583222
X       11.74126173      11.72971789      11.45269360       0.01951177      -0.39942667      -0.02807549       0.91612739       0.01479062      -0.02722584       0.17700768       0.01441342       0.00064600      -0.01081606       1.00000000       1.50000000       2.00000000      -0.04937837      -0.04896419      -0.04941747      -0.01583222
2
Properties=species:S:1:pos:R:3:quaternions:R:4:old_torques:R:3:torques:R:3:c_diameter[1]:R:1:c_diameter[2]:R:1:c_diameter[3]:R:1:forces:R:3:energies:R:1 separation_distance=2.6925697306211305 old_energy=-0.7924631748732047 distance=2.692569732227655 gb_cutoff=5.0 gb_epsilon=1.0 gb_sigma=1.0 energy=-0.040425615270719036 pbc="F F F"
X       10.00000000      10.00000000      10.00000000       0.90755242      -0.13396662       0.20646906      -0.34025297       0.02878425       0.67583154       0.11246265      -0.06544169       0.00044302       0.05086026       1.00000000       1.50000000       2.00000000       0.13164552       0.17985739       0.11312299      -0.04042562
X       11.66166310      11.76857319      11.16660035       0.13571443      -0.39600148      -0.48130668       0.77013525      -0.10647224       3.99182532      -0.19916279       0.05568628      -0.03483761       0.01517739       1.00000000       1.50000000       2.00000000      -0.13164552      -0.17985739      -0.11312299      -0.04042562
2
Properties=species:S:1:pos:R:3:quaternions:R:4:old_torques:R:3:torques:R:3:c_diameter[1]:R:1:c_diameter[2]:R:1:c_diameter[3]:R:1:forces:R:3:energies:R:1 separation_distance=2.805742759341189 old_energy=-0.52101661271262 distance=2.805742758426892 gb_cutoff=5.0 gb_epsilon=1.0 gb_sigma=1.0 energy=-0.011935466575276938 pbc="F F F"
X       10.00000000      10.00000000      10.00000000       0.65986443      -0.43476420      -0.53990197      -0.28993947       0.55148237      -0.68676303       0.64768812       0.01065830      -0.00812048      -0.00608507       1.00000000       1.50000000       2.00000000       0.03657656       0.03027288       0.03996680      -0.01193547
X       11.87018925      11.64952861      11.28593933       0.50107159       0.12779751      -0.64149743       0.56663578       0.02553634      -0.04437692      -0.20275745       0.01633899      -0.01958976       0.00236700       1.00000000       1.50000000       2.00000000      -0.03657656      -0.03027288      -0.03996680      -0.01193547
2
Properties=species:S:1:pos:R:3:quaternions:R:4:old_torques:R:3:torques:R:3:c_diameter[1]:R:1:c_diameter[2]:R:1:c_diameter[3]:R:1:forces:R:3:energies:R:1 separation_distance=3.013689688001137 old_energy=-0.47139402958168136 distance=3.0136896898323333 gb_cutoff=5.0 gb_epsilon=1.0 gb_sigma=1.0 energy=-0.0066781263877907756 pbc="F F F"
X       10.00000000      10.00000000      10.00000000       0.07098911      -0.00176772       0.95612993       0.28420586      -0.20616200      -0.53038363      -0.59524243      -0.00100616       0.00903492      -0.00272024       1.00000000       1.50000000       2.00000000       0.02200967       0.01198575       0.01883788      -0.00667813
X       11.63256739      11.61128357      11.95469039       0.20085529       0.02224501       0.68892250       0.69609489       0.29015808       0.64773719      -0.59859261       0.00793089       0.00323308      -0.01317604       1.00000000       1.50000000       2.00000000      -0.02200967      -0.01198575      -0.01883788      -0.00667813
2
Properties=species:S:1:pos:R:3:quaternions:R:4:old_torques:R:3:torques:R:3:c_diameter[1]:R:1:c_diameter[2]:R:1:c_diameter[3]:R:1:forces:R:3:energies:R:1 separation_distance=3.175323675126243 old_energy=-0.3893533975723712 distance=3.1753236686589585 gb_cutoff=5.0 gb_epsilon=1.0 gb_sigma=1.0 energy=-0.008867074674884767 pbc="F F F"
X       10.00000000      10.00000000      10.00000000       0.07454086      -0.11200768      -0.98190161       0.13329352       1.90524472       5.18441370       1.72423495      -0.00474928       0.01634737      -0.00975127       1.00000000       1.50000000       2.00000000       0.03397979       0.02053902       0.01933363      -0.00886707
X       11.88012715      11.92941943      11.68081616       0.45139181       0.74446550      -0.46343175       0.16506834       3.11367728      -0.69341533      -0.55332644       0.00752965       0.00441673      -0.01719403       1.00000000       1.50000000       2.00000000      -0.03397979      -0.02053902      -0.01933363      -0.00886707
2
Properties=species:S:1:pos:R:3:quaternions:R:4:old_torques:R:3:torques:R:3:c_diameter[1]:R:1:c_diameter[2]:R:1:c_diameter[3]:R:1:forces:R:3:energies:R:1 separation_distance=2.8290992700157678 old_energy=-0.3053974450937283 distance=2.8290992707997704 gb_cutoff=5.0 gb_epsilon=1.0 gb_sigma=1.0 energy=-0.02067362697082965 pbc="F F F"
X       10.00000000      10.00000000      10.00000000       0.23903000      -0.25559765      -0.55889359       0.75177952       0.07539950      -0.64709050       0.21068563       0.01989659      -0.02169346       0.00059977       1.00000000       1.50000000       2.00000000       0.05353746       0.07683999       0.06583176      -0.02067363
X       11.59315431      11.93152724      11.31714257       0.34855638      -0.35234434      -0.40093029       0.77046533      -0.02664319      -0.44751346      -0.12510660       0.00605002      -0.01267024       0.01840913       1.00000000       1.50000000       2.00000000      -0.05353746      -0.07683999      -0.06583176      -0.02067363
2
Properties=species:S:1:pos:R:3:quaternions:R:4:old_torques:R:3:torques:R:3:c_diameter[1]:R:1:c_diameter[2]:R:1:c_diameter[3]:R:1:forces:R:3:energies:R:1 separation_distance=2.5755767834584518 old_energy=-0.7780502535772066 distance=2.575576783642887 gb_cutoff=5.0 gb_epsilon=1.0 gb_sigma=1.0 energy=-0.025841026099801014 pbc="F F F"
X       10.00000000      10.00000000      10.00000000       0.21111771       0.27577419      -0.54264678      -0.76479565      -0.02962676      -1.15697046      -0.18013693      -0.01169292       0.01379111      -0.00107877       1.00000000       1.50000000       2.00000000       0.10255218       0.08624333       0.07254402      -0.02584103
X       11.35522412      11.62802900      11.46508871       0.87916497      -0.44941939       0.14789296      -0.05673483      -0.03107753      -0.11971875      -0.55131389       0.00344256       0.03814352      -0.04900011       1.00000000       1.50000000       2.00000000      -0.10255218      -0.08624333      -0.07254402      -0.02584103
2
Properties=species:S:1:pos:R:3:quaternions:R:4:old_torques:R:3:torques:R:3:c_diameter[1]:R:1:c_diameter[2]:R:1:c_diameter[3]:R:1:forces:R:3:energies:R:1 separation_distance=2.8809029271160576 old_energy=-0.577828057501306 distance=2.880902928735869 gb_cutoff=5.0 gb_epsilon=1.0 gb_sigma=1.0 energy=-0.012609184901888677 pbc="F F F"
X       10.00000000      10.00000000      10.00000000       0.28523171      -0.04501820      -0.95668550       0.03700114      -0.13397756      -0.39290607      -0.44056847      -0.01366889       0.01251728       0.00363820       1.00000000       1.50000000       2.00000000       0.04313600       0.03348282       0.03527460      -0.01260918
X       11.98883663      11.31509699      11.61698808       0.60130204       0.29474893       0.35177507      -0.65407433       0.42607679       0.29182851      -0.37622336       0.00591710      -0.01292230       0.00622563       1.00000000       1.50000000       2.00000000      -0.04313600      -0.03348282      -0.03527460      -0.01260918
2
Properties=species:S:1:pos:R:3:quaternions:R:4:old_torques:R:3:torques:R:3:c_diameter[1]:R:1:c_diameter[2]:R:1:c_diameter[3]:R:1:forces:R:3:energies:R:1 separation_distance=2.6728636871697344 old_energy=-0.3445635724552466 distance=2.672863684777927 gb_cutoff=5.0 gb_epsilon=1.0 gb_sigma=1.0 energy=-0.011760150407430139 pbc="F F F"
X       10.00000000      10.00000000      10.00000000       0.64206528      -0.19513299      -0.22740241       0.70566524       0.07224721       0.26381446      -0.40646987      -0.00925372      -0.00113148       0.01064032       1.00000000       1.50000000       2.00000000       0.03269428       0.03762949       0.03351141      -0.01176015
X       11.30815376      11.46339799      11.81422169       0.24862744       0.90460822       0.31133997       0.15144564       0.03513980       0.15143906      -0.36134545      -0.00997400       0.01660808      -0.00925990       1.00000000       1.50000000       2.00000000      -0.03269428      -0.03762949      -0.03351141      -0.01176015
2
Properties=species:S:1:pos:R:3:quaternions:R:4:old_torques:R:3:torques:R:3:c_diameter[1]:R:1:c_diameter[2]:R:1:c_diameter[3]:R:1:forces:R:3:energies:R:1 separation_distance=2.5452040072414315 old_energy=-0.8474175904764752 distance=2.5452040031851206 gb_cutoff=5.0 gb_epsilon=1.0 gb_sigma=1.0 energy=-0.02650915981761034 pbc="F F F"
X       10.00000000      10.00000000      10.00000000       0.65865458      -0.69723005       0.26304257      -0.10417775       0.10177289      -4.53675220      -0.23381655       0.03464144      -0.00907500      -0.03718407       1.00000000       1.50000000       2.00000000       0.11186813       0.06992731       0.08285310      -0.02650916
X       11.70196857      11.30745849      11.36818080       0.56068885       0.71674716       0.38692717       0.14895933       0.03956152      -0.71584264      -0.24016294      -0.02198765       0.02111746       0.00993521       1.00000000       1.50000000       2.00000000      -0.11186813      -0.06992731      -0.08285310      -0.02650916
2
Properties=species:S:1:pos:R:3:quaternions:R:4:old_torques:R:3:torques:R:3:c_diameter[1]:R:1:c_diameter[2]:R:1:c_diameter[3]:R:1:forces:R:3:energies:R:1 separation_distance=2.988362632761967 old_energy=-0.31392393235625676 distance=2.9883626361238056 gb_cutoff=5.0 gb_epsilon=1.0 gb_sigma=1.0 energy=-0.00677847457059508 pbc="F F F"
X       10.00000000      10.00000000      10.00000000       0.03128385       0.51582667      -0.79504578       0.31756318      -3.35802670       6.58927716      -2.75282620      -0.01160641       0.00893819      -0.00520992       1.00000000       1.50000000       2.00000000       0.01321973       0.02406387       0.01619068      -0.00677847
X       11.22877968      11.96975318      11.88161743       0.62491774      -0.39029481      -0.53103904       0.41850367       2.33861691       3.07851696       3.34320222      -0.00178094      -0.00395850       0.00873952       1.00000000       1.50000000       2.00000000      -0.01321973      -0.02406387      -0.01619068      -0.00677847
2
Properties=species:S:1:pos:R:3:quaternions:R:4:old_torques:R:3:torques:R:3:c_diameter[1]:R:1:c_diameter[2]:R:1:c_diameter[3]:R:1:forces:R:3:energies:R:1 separation_distance=2.3860542942502563 old_energy=-0.8493827569118532 distance=2.3860542905633912 gb_cutoff=5.0 gb_epsilon=1.0 gb_sigma=1.0 energy=-0.03522771782929463 pbc="F F F"
X       10.00000000      10.00000000      10.00000000       0.23828669       0.14354809      -0.95091889      -0.13552364      -0.02202348      -0.34703411      -0.04875190      -0.06722045       0.08460280       0.02304516       1.00000000       1.50000000       2.00000000       0.15464789       0.11049130       0.10928698      -0.03522772
X       11.31790891      11.06166023      11.68203708       0.09675456       0.22240122      -0.56324117      -0.78989597       0.05776316       0.73122720      -0.09335564      -0.00260437       0.03149040      -0.04161121       1.00000000       1.50000000       2.00000000      -0.15464789      -0.11049130      -0.10928698      -0.03522772
2
Properties=species:S:1:pos:R:3:quaternions:R:4:old_torques:R:3:torques:R:3:c_diameter[1]:R:1:c_diameter[2]:R:1:c_diameter[3]:R:1:forces:R:3:energies:R:1 separation_distance=2.901068562658447 old_energy=-0.6814522132953951 distance=2.9010685585248375 gb_cutoff=5.0 gb_epsilon=1.0 gb_sigma=1.0 energy=-0.012349179743988704 pbc="F F F"
X       10.00000000      10.00000000      10.00000000       0.86994013       0.04667232       0.47263297      -0.13283048       0.02039355      -0.04795020      -0.01176269      -0.00656254      -0.01094268       0.01807157       1.00000000       1.50000000       2.00000000       0.03355349       0.03846502       0.03940460      -0.01234918
X       11.72676707      11.40732020      11.85847360       0.15437406      -0.78688291       0.52887502      -0.27798407       0.04816451       0.09206423      -0.02328219      -0.00946880       0.00525838       0.00112807       1.00000000       1.50000000       2.00000000      -0.03355349      -0.03846502      -0.03940460      -0.01234918
2
Properties=species:S:1:pos:R:3:quaternions:R:4:old_torques:R:3:torques:R:3:c_diameter[1]:R:1:c_diameter[2]:R:1:c_diameter[3]:R:1:forces:R:3:energies:R:1 separation_distance=3.1684693624773104 old_energy=-0.32932934206002007 distance=3.16846936169852 gb_cutoff=5.0 gb_epsilon=1.0 gb_sigma=1.0 energy=-0.010922085818711083 pbc="F F F"
X       10.00000000      10.00000000      10.00000000       0.22706514      -0.05559478      -0.07155063       0.96965517       0.14685058      -5.18074622      -0.45309955      -0.00333668       0.01253809      -0.00702120       1.00000000       1.50000000       2.00000000       0.03306643       0.02960142       0.03157039      -0.01092209
X       11.87970757      11.68120949      11.91818461       0.25816795       0.33549926       0.42921279       0.79785082      -4.67487356      -3.38763103       1.10845870      -0.00036786      -0.00845368       0.00707162       1.00000000       1.50000000       2.00000000      -0.03306643      -0.02960142      -0.03157039      -0.01092209
2
Properties=species:S:1:pos:R:3:quaternions:R:4:old_torques:R:3:torques:R:3:c_diameter[1]:R:1:c_diameter[2]:R:1:c_diameter[3]:R:1:forces:R:3:energies:R:1 separation_distance=2.995009666376532 old_energy=-0.5284587039629859 distance=2.9950096653197606 gb_cutoff=5.0 gb_epsilon=1.0 gb_sigma=1.0 energy=-0.009302074855931331 pbc="F F F"
X       10.00000000      10.00000000      10.00000000       0.44612641       0.41336986      -0.77804703      -0.15728762      -0.10490956      -2.18940618       0.41039311      -0.01396278       0.00267894       0.01338390       1.00000000       1.50000000       2.00000000       0.02253637       0.03279587       0.02274748      -0.00930207
X       11.54942965      11.99389879      11.61050249       0.88344958      -0.07318470      -0.44982524      -0.10871107      -2.77825109      -0.76166410       0.45271118       0.00650111      -0.00162967      -0.00750425       1.00000000       1.50000000       2.00000000      -0.02253637      -0.03279587      -0.02274748      -0.00930207
2
Properties=species:S:1:pos:R:3:quaternions:R:4:old_torques:R:3:torques:R:3:c_diameter[1]:R:1:c_diameter[2]:R:1:c_diameter[3]:R:1:forces:R:3:energies:R:1 separation_distance=2.6906873525815973 old_energy=-0.5815896507970082 distance=2.6906873545554655 gb_cutoff=5.0 gb_epsilon=1.0 gb_sigma=1.0 energy=-0.015585535222486036 pbc="F F F"
X       10.00000000      10.00000000      10.00000000       0.33649095       0.00160880      -0.51803509       0.78639106      -0.45807034       2.34948770      -2.55091078       0.01048471      -0.00393581      -0.00665142       1.00000000       1.50000000       2.00000000       0.05712192       0.03674469       0.05016019      -0.01558554
X       11.81518624      11.44081490      11.36709538       0.53050806       0.37379569       0.72940862      -0.21633548       0.96057736     -13.84466779      -1.07195219       0.01155334      -0.00902316      -0.00895224       1.00000000       1.50000000       2.00000000      -0.05712192      -0.03674469      -0.05016019      -0.01558554
2
Properties=species:S:1:pos:R:3:quaternions:R:4:old_torques:R:3:torques:R:3:c_diameter[1]:R:1:c_diameter[2]:R:1:c_diameter[3]:R:1:forces:R:3:energies:R:1 separation_distance=2.9484371343435933 old_energy=-0.10981477478976998 distance=2.948437136697911 gb_cutoff=5.0 gb_epsilon=1.0 gb_sigma=1.0 energy=-0.004799815063025748 pbc="F F F"
X       10.00000000      10.00000000      10.00000000       0.23139149       0.93706169       0.25199336       0.06980483       0.02731080       0.13109812      -0.08812797      -0.00411484       0.00761553      -0.00332852       1.00000000       1.50000000       2.00000000       0.01296437       0.01204776       0.01151279      -0.00479982
X       11.54003223      11.73683695      11.81796031       0.03620362      -0.45693705       0.46873357       0.75510706      -0.00212692      -0.00418451       0.06180498       0.00220834      -0.00177689      -0.00063455       1.00000000       1.50000000       2.00000000      -0.01296437      -0.01204776      -0.01151279      -0.00479982
2
Properties=species:S:1:pos:R:3:quaternions:R:4:old_torques:R:3:torques:R:3:c_diameter[1]:R:1:c_diameter[2]:R:1:c_diameter[3]:R:1:forces:R:3:energies:R:1 separation_distance=2.7540724971587833 old_energy=-0.4857456827244123 distance=2.7540724971696977 gb_cutoff=5.0 gb_epsilon=1.0 gb_sigma=1.0 energy=-0.00807089503410358 pbc="F F F"
X       10.00000000      10.00000000      10.00000000       0.71048528      -0.66181083      -0.20319764      -0.12620541      -0.26682511       0.48380537       0.61041786       0.00867162       0.00393791      -0.01247957       1.00000000       1.50000000       2.00000000       0.02509601       0.02203001       0.01990434      -0.00807090
X       11.60967936      11.93308551      11.12117264       0.01997658      -0.48752707       0.17431319       0.85529715       0.17911670      -0.60097041       0.52692219       0.00510572      -0.00784055      -0.00057192       1.00000000       1.50000000       2.00000000      -0.02509601      -0.02203001      -0.01990434      -0.00807090
2
Properties=species:S:1:pos:R:3:quaternions:R:4:old_torques:R:3:torques:R:3:c_diameter[1]:R:1:c_diameter[2]:R:1:c_diameter[3]:R:1:forces:R:3:energies:R:1 separation_distance=2.7792513681718094 old_energy=-0.514393976214633 distance=2.779251364349608 gb_cutoff=5.0 gb_epsilon=1.0 gb_sigma=1.0 energy=-0.017572788151237983 pbc="F F F"
X       10.00000000      10.00000000      10.00000000       0.52702579       0.02130889      -0.60484826       0.59661405      -0.01152581      -0.05100952      -0.12071750       0.02865867      -0.03296939       0.02737034       1.00000000       1.50000000       2.00000000       0.03970360       0.07177234       0.05699726      -0.01757279
X       11.87271469      11.75567190      11.06526711       0.16256404       0.78046771      -0.30149119      -0.52301639       0.34794440      -0.36484814       0.65492952      -0.00504690      -0.03147527       0.03733228       1.00000000       1.50000000       2.00000000      -0.03970360      -0.07177234      -0.05699726      -0.01757279
2
Properties=species:S:1:pos:R:3:quaternions:R:4:old_torques:R:3:torques:R:3:c_diameter[1]:R:1:c_diameter[2]:R:1:c_diameter[3]:R:1:forces:R:3:energies:R:1 separation_distance=2.7473043255579404 old_energy=-0.504375748685262 distance=2.747304322868437 gb_cutoff=5.0 gb_epsilon=1.0 gb_sigma=1.0 energy=-0.02204047834346486 pbc="F F F"
X       10.00000000      10.00000000      10.00000000       0.66329647       0.66657789       0.26472245      -0.21362054       0.09646085       0.25734429      -0.64856874       0.02856446       0.00153657      -0.00895841       1.00000000       1.50000000       2.00000000       0.06098160       0.06118174       0.08895942      -0.02204048
X       11.46910824      11.38000425      11.86681287       0.74877479       0.35378803       0.49189123       0.26872544       0.23556651      -0.50343580       0.62060097      -0.02001495      -0.01838635       0.01468614       1.00000000       1.50000000       2.00000000      -0.06098160      -0.06118174      -0.08895942      -0.02204048
2
Properties=species:S:1:pos:R:3:quaternions:R:4:old_torques:R:3:torques:R:3:c_diameter[1]:R:1:c_diameter[2]:R:1:c_diameter[3]:R:1:forces:R:3:energies:R:1 separation_distance=3.2169893013911346 old_energy=-0.06251502320973487 distance=3.216989305168432 gb_cutoff=5.0 gb_epsilon=1.0 gb_sigma=1.0 energy=-0.0055796446392820396 pbc="F F F"
X       10.00000000      10.00000000      10.00000000       0.74670892      -0.29162445       0.03257009      -0.59692559       0.00206320      -0.04463007       0.00538580      -0.00593783       0.00147969       0.00300082       1.00000000       1.50000000       2.00000000       0.01146082       0.01636710       0.01583566      -0.00557964
X       11.58301918      11.97028529      11.99023776       0.62460581       0.30359202       0.40796878      -0.59267271       0.01521188       0.04707906      -0.06648002       0.00456416      -0.00373807       0.00032753       1.00000000       1.50000000       2.00000000      -0.01146082      -0.01636710      -0.01583566      -0.00557964
2
Properties=species:S:1:pos:R:3:quaternions:R:4:old_torques:R:3:torques:R:3:c_diameter[1]:R:1:c_diameter[2]:R:1:c_diameter[3]:R:1:forces:R:3:energies:R:1 separation_distance=2.3890206996015597 old_energy=-0.9012564865717306 distance=2.3890206983556603 gb_cutoff=5.0 gb_epsilon=1.0 gb_sigma=1.0 energy=-0.021166596220462165 pbc="F F F"
X       10.00000000      10.00000000      10.00000000       0.15813590      -0.60053904       0.70662742       0.33915127      -0.06436294       3.36538551      -0.23635632      -0.00895067      -0.00958009       0.02015121       1.00000000       1.50000000       2.00000000       0.07083478       0.07149325       0.06402808      -0.02116660
X       11.29258041      11.56544319      11.25938215       0.22914398      -0.33722454       0.29425423       0.86439984       0.07425067      -0.85541246      -0.60897079       0.01914566       0.01602671      -0.03862825       1.00000000       1.50000000       2.00000000      -0.07083478      -0.07149325      -0.06402808      -0.02116660
2
Properties=species:S:1:pos:R:3:quaternions:R:4:old_torques:R:3:torques:R:3:c_diameter[1]:R:1:c_diameter[2]:R:1:c_diameter[3]:R:1:forces:R:3:energies:R:1 separation_distance=3.1857930224366613 old_energy=-0.5588412398634871 distance=3.1857930170325273 gb_cutoff=5.0 gb_epsilon=1.0 gb_sigma=1.0 energy=-0.0066270581122230415 pbc="F F F"
X       10.00000000      10.00000000      10.00000000       0.67200514      -0.22253635      -0.25195482      -0.65985259      -0.05576532      -0.35038089      -0.04772683      -0.00292012       0.00755954      -0.00529036       1.00000000       1.50000000       2.00000000       0.01927430       0.01811675       0.01670067      -0.00662706
X       11.55736364      11.97349049      11.95684208       0.05850286       0.10754085      -0.46083620       0.87900078       0.20647610      -0.24009571       0.25078410       0.00042712       0.00414821      -0.00453293       1.00000000       1.50000000       2.00000000      -0.01927430      -0.01811675      -0.01670067      -0.00662706
2
Properties=species:S:1:pos:R:3:quaternions:R:4:old_torques:R:3:torques:R:3:c_diameter[1]:R:1:c_diameter[2]:R:1:c_diameter[3]:R:1:forces:R:3:energies:R:1 separation_distance=2.9334075135577478 old_energy=-0.5201980461542733 distance=2.933407513429439 gb_cutoff=5.0 gb_epsilon=1.0 gb_sigma=1.0 energy=-0.004309104618586241 pbc="F F F"
X       10.00000000      10.00000000      10.00000000       0.13895148      -0.29463163       0.88836583       0.32355964      -0.08914820      -0.40190924      -0.29038746       0.00108438       0.00184367      -0.00245866       1.00000000       1.50000000       2.00000000       0.00915507       0.01224261       0.01039980      -0.00430910
X       11.55273039      11.86123006      11.65218965       0.48887244      -0.53875806      -0.68515860       0.03607194      -0.28223007       0.18427195       0.32296527      -0.00195507      -0.00286584       0.00442844       1.00000000       1.50000000       2.00000000      -0.00915507      -0.01224261      -0.01039980      -0.00430910
2
Properties=species:S:1:pos:R:3:quaternions:R:4:old_torques:R:3:torques:R:3:c_diameter[1]:R:1:c_diameter[2]:R:1:c_diameter[3]:R:1:forces:R:3:energies:R:1 separation_distance=2.724426736414968 old_energy=-0.5531547342193437 distance=2.724426728830291 gb_cutoff=5.0 gb_epsilon=1.0 gb_sigma=1.0 energy=-0.00909708229454775 pbc="F F F"
X       10.00000000      10.00000000      10.00000000       0.69939616      -0.25565219      -0.18570009       0.64109473       0.15786680       0.18845693      -0.67558379      -0.00467820       0.00095105       0.00850907       1.00000000       1.50000000       2.00000000       0.03151169       0.02361121       0.02130521      -0.00909708
X       11.87772286      11.23309408      11.54147230       0.09759620       0.15234686      -0.90723224      -0.37973027       0.02065908       0.11779271      -0.56238821      -0.00544650       0.00761806      -0.00303064       1.00000000       1.50000000       2.00000000      -0.03151169      -0.02361121      -0.02130521      -0.00909708
2
Properties=species:S:1:pos:R:3:quaternions:R:4:old_torques:R:3:torques:R:3:c_diameter[1]:R:1:c_diameter[2]:R:1:c_diameter[3]:R:1:forces:R:3:energies:R:1 separation_distance=2.7802269333752463 old_energy=-0.6292844608366093 distance=2.780226938012472 gb_cutoff=5.0 gb_epsilon=1.0 gb_sigma=1.0 energy=-0.01619291933665981 pbc="F F F"
X       10.00000000      10.00000000      10.00000000       0.93468302       0.19446182       0.21702407       0.20359963       0.57929773      -1.08112100       0.61525556      -0.02573012       0.01380273      -0.00253457       1.00000000       1.50000000       2.00000000       0.04018779       0.06209764       0.04623046      -0.01619292
X       11.37379631      11.61453588      11.79878276       0.89714543       0.04471722       0.26689589      -0.34913755      -0.00624022      -0.09594814      -0.36444346      -0.01132930      -0.00502486       0.02295944       1.00000000       1.50000000       2.00000000      -0.04018779      -0.06209764      -0.04623046      -0.01619292
2
Properties=species:S:1:pos:R:3:quaternions:R:4:old_torques:R:3:torques:R:3:c_diameter[1]:R:1:c_diameter[2]:R:1:c_diameter[3]:R:1:forces:R:3:energies:R:1 separation_distance=2.755475588695901 old_energy=-0.25736557510995295 distance=2.755475591236045 gb_cutoff=5.0 gb_epsilon=1.0 gb_sigma=1.0 energy=-0.028058020815673577 pbc="F F F"
X       10.00000000      10.00000000      10.00000000       0.43722881       0.34941314      -0.78544309       0.26423582      -0.00198592       0.00740757       0.05773237       0.02457842      -0.00243439      -0.02204474       1.00000000       1.50000000       2.00000000       0.11262885       0.07422408       0.09337517      -0.02805802
X       11.83537796      11.58179395      11.31223526       0.38173571      -0.52662057       0.28770262       0.70297641      -0.04662858      -0.52498855      -0.11845787       0.02572240      -0.02114878      -0.01988165       1.00000000       1.50000000       2.00000000      -0.11262885      -0.07422408      -0.09337517      -0.02805802
2
Properties=species:S:1:pos:R:3:quaternions:R:4:old_torques:R:3:torques:R:3:c_diameter[1]:R:1:c_diameter[2]:R:1:c_diameter[3]:R:1:forces:R:3:energies:R:1 separation_distance=2.9199666482389723 old_energy=-0.5616423341970546 distance=2.9199666506994784 gb_cutoff=5.0 gb_epsilon=1.0 gb_sigma=1.0 energy=-0.007262668555024324 pbc="F F F"
X       10.00000000      10.00000000      10.00000000       0.60416174       0.79153049       0.04211172      -0.08182100      -0.01663503       0.12673887       0.31126420       0.00335097       0.00741759      -0.01381864       1.00000000       1.50000000       2.00000000       0.02524221       0.01716966       0.01630215      -0.00726267
X       11.95650735      11.60893472      11.45245079       0.52267509       0.26973737      -0.10888815      -0.80137125       0.07474767      -0.03517243      -0.03503889      -0.00205996      -0.00264980       0.00679813       1.00000000       1.50000000       2.00000000      -0.02524221      -0.01716966      -0.01630215      -0.00726267
2
Properties=species:S:1:pos:R:3:quaternions:R:4:old_torques:R:3:torques:R:3:c_diameter[1]:R:1:c_diameter[2]:R:1:c_diameter[3]:R:1:forces:R:3:energies:R:1 separation_distance=2.9912396241147077 old_energy=-0.2895414161836362 distance=2.991239619869507 gb_cutoff=5.0 gb_epsilon=1.0 gb_sigma=1.0 energy=-0.006881577704768941 pbc="F F F"
X       10.00000000      10.00000000      10.00000000       0.86257421       0.12401037       0.48902432      -0.03797861      -0.07120904       0.40692873       0.25080303      -0.00368459      -0.00240764       0.00745418       1.00000000       1.50000000       2.00000000       0.02066441       0.01771026       0.01707797      -0.00688158
X       11.97651664      11.56728085      11.60764647       0.69464462      -0.63037279      -0.34641550      -0.00976239      -0.13160441       0.07102771       0.30664812       0.00197873       0.00187381      -0.00483649       1.00000000       1.50000000       2.00000000      -0.02066441      -0.01771026      -0.01707797      -0.00688158
2
Properties=species:S:1:pos:R:3:quaternions:R:4:old_torques:R:3:torques:R:3:c_diameter[1]:R:1:c_diameter[2]:R:1:c_diameter[3]:R:1:forces:R:3:energies:R:1 separation_distance=2.8551999984763365 old_energy=-0.5559111766768188 distance=2.855199998686776 gb_cutoff=5.0 gb_epsilon=1.0 gb_sigma=1.0 energy=-0.006059027346250997 pbc="F F F"
X       10.00000000      10.00000000      10.00000000       0.55157249      -0.46754478      -0.67168898      -0.16125630       0.18930502      -0.11414466       0.21941963       0.00208483      -0.00478548       0.00316583       1.00000000       1.50000000       2.00000000       0.01730365       0.01547325       0.01535615      -0.00605903
X       11.93901376      11.36378185      11.59138045       0.13925358       0.76691134       0.59054526       0.20907350      -0.01222892       0.15374359       0.23354398      -0.00576622       0.00254638       0.00323862       1.00000000       1.50000000       2.00000000      -0.01730365      -0.01547325      -0.01535615      -0.00605903
2
Properties=species:S:1:pos:R:3:quaternions:R:4:old_torques:R:3:torques:R:3:c_diameter[1]:R:1:c_diameter[2]:R:1:c_diameter[3]:R:1:forces:R:3:energies:R:1 separation_distance=2.763014580646291 old_energy=-0.5568687388437006 distance=2.7630145827637813 gb_cutoff=5.0 gb_epsilon=1.0 gb_sigma=1.0 energy=-0.015295135913478105 pbc="F F F"
X       10.00000000      10.00000000      10.00000000       0.49588828      -0.28907243       0.12204167       0.80971463       0.17652827       0.37219979      -0.65780854      -0.00583081       0.01273250      -0.01529700       1.00000000       1.50000000       2.00000000       0.04800767       0.04737770       0.04682059      -0.01529514
X       11.44155113      11.39879394      11.89724944       0.73559607       0.50950208       0.34771897       0.27999567       0.21652044      -1.23339015       0.31625231      -0.01856414       0.01085574       0.01644154       1.00000000       1.50000000       2.00000000      -0.04800767      -0.04737770      -0.04682059      -0.01529514
2
Properties=species:S:1:pos:R:3:quaternions:R:4:old_torques:R:3:torques:R:3:c_diameter[1]:R:1:c_diameter[2]:R:1:c_diameter[3]:R:1:forces:R:3:energies:R:1 separation_distance=2.3878175951732485 old_energy=-0.8005359790101216 distance=2.387817593033265 gb_cutoff=5.0 gb_epsilon=1.0 gb_sigma=1.0 energy=-0.04352760153237418 pbc="F F F"
X       10.00000000      10.00000000      10.00000000       0.59167365      -0.25830298      -0.20396665       0.73593441      -0.00404728      -0.33291659       1.25228978      -0.02578171       0.03705354       0.01058009       1.00000000       1.50000000       2.00000000       0.14215896       0.11556333       0.20407892      -0.04352760
X       11.19380755      11.03809707      11.78853316       0.30237505       0.14364610      -0.59236833       0.73282665      -0.06934191       0.06540485      -1.61728920       0.03094659      -0.02642848      -0.02019452       1.00000000       1.50000000       2.00000000      -0.14215896      -0.11556333      -0.20407892      -0.04352760
2
Properties=species:S:1:pos:R:3:quaternions:R:4:old_torques:R:3:torques:R:3:c_diameter[1]:R:1:c_diameter[2]:R:1:c_diameter[3]:R:1:forces:R:3:energies:R:1 separation_distance=2.7246221701149116 old_energy=-0.3926159792521497 distance=2.72462217219821 gb_cutoff=5.0 gb_epsilon=1.0 gb_sigma=1.0 energy=-0.011283826504887134 pbc="F F F"
X       10.00000000      10.00000000      10.00000000       0.01575212       0.45896634      -0.09503297      -0.88321600       0.02564002      -0.11250910       0.31435860       0.00718821       0.00200026      -0.00386765       1.00000000       1.50000000       2.00000000       0.03033449       0.02795993       0.04030707      -0.01128383
X       11.28939601      11.69647131      11.69794258       0.15707939      -0.20533912      -0.56938292       0.78036210       0.17655388      -0.62983407       0.47120848       0.01371721      -0.00246580      -0.01154251       1.00000000       1.50000000       2.00000000      -0.03033449      -0.02795993      -0.04030707      -0.01128383
2
Properties=species:S:1:pos:R:3:quaternions:R:4:old_torques:R:3:torques:R:3:c_diameter[1]:R:1:c_diameter[2]:R:1:c_diameter[3]:R:1:forces:R:3:energies:R:1 separation_distance=2.6867280556972837 old_energy=-0.3327234608261703 distance=2.6867280602581465 gb_cutoff=5.0 gb_epsilon=1.0 gb_sigma=1.0 energy=-0.028020227179868393 pbc="F F F"
X       10.00000000      10.00000000      10.00000000       0.12922681      -0.67555080       0.27781291       0.67063517       0.12989013      -0.61662567       0.33072825       0.02687347      -0.02161739       0.00919909       1.00000000       1.50000000       2.00000000       0.07745722       0.10905830       0.09756663      -0.02802023
X       11.33585541      11.92051527      11.32121879       0.71541775      -0.49967590      -0.02851166      -0.48753310      -0.02360434       0.07492104       0.25698519       0.01641485      -0.00637958      -0.01227075       1.00000000       1.50000000       2.00000000      -0.07745722      -0.10905830      -0.09756663      -0.02802023
2
Properties=species:S:1:pos:R:3:quaternions:R:4:old_torques:R:3:torques:R:3:c_diameter[1]:R:1:c_diameter[2]:R:1:c_diameter[3]:R:1:forces:R:3:energies:R:1 separation_distance=2.66615858095947 old_energy=-0.7275328255977271 distance=2.6661585809507793 gb_cutoff=5.0 gb_epsilon=1.0 gb_sigma=1.0 energy=-0.007339297058195207 pbc="F F F"
X       10.00000000      10.00000000      10.00000000       0.16359403      -0.12629057       0.96531200       0.15956325      -0.32689008      -0.70761819      -0.35470295       0.00050466       0.00323421      -0.00331487       1.00000000       1.50000000       2.00000000       0.02437429       0.01752822       0.01675701      -0.00733930
X       11.63220842      11.60844657      11.36279011       0.03885464      -0.23365459       0.61897719       0.74884116      -0.06804001       0.51299289       0.16072026       0.00256081       0.00263190      -0.00728017       1.00000000       1.50000000       2.00000000      -0.02437429      -0.01752822      -0.01675701      -0.00733930
2
Properties=species:S:1:pos:R:3:quaternions:R:4:old_torques:R:3:torques:R:3:c_diameter[1]:R:1:c_diameter[2]:R:1:c_diameter[3]:R:1:forces:R:3:energies:R:1 separation_distance=2.8746570391891124 old_energy=-0.37839295292590236 distance=2.874657035088677 gb_cutoff=5.0 gb_epsilon=1.0 gb_sigma=1.0 energy=-0.006215970028980662 pbc="F F F"
X       10.00000000      10.00000000      10.00000000       0.41717935       0.75130648       0.42454669       0.28506153      -0.02288449      -0.63852339      -0.14692583      -0.00466348       0.00459197      -0.00131970       1.00000000       1.50000000       2.00000000       0.01376620       0.01991078       0.01544240      -0.00621597
X       11.47569244      11.95294918      11.50730700       0.09776403      -0.54777405      -0.70587420      -0.43832340       0.19410303      -0.26195788       0.53555694       0.00481005      -0.00663032       0.00381720       1.00000000       1.50000000       2.00000000      -0.01376620      -0.01991078      -0.01544240      -0.00621597
2
Properties=species:S:1:pos:R:3:quaternions:R:4:old_torques:R:3:torques:R:3:c_diameter[1]:R:1:c_diameter[2]:R:1:c_diameter[3]:R:1:forces:R:3:energies:R:1 separation_distance=3.0216777592426034 old_energy=-0.6467695350124341 distance=3.0216777629668274 gb_cutoff=5.0 gb_epsilon=1.0 gb_sigma=1.0 energy=-0.005492760486468375 pbc="F F F"
X       10.00000000      10.00000000      10.00000000       0.15937560       0.56292875       0.22436534       0.77934000      -0.06875089      -0.37998474      -0.06492774       0.00115576      -0.00861438       0.00629541       1.00000000       1.50000000       2.00000000       0.00694757       0.01511315       0.01862718      -0.00549276
X       11.52896549      11.75922133      11.92300321       0.76794375      -0.12820259       0.61099329      -0.14322602      -0.06538721       0.26434208       0.28119055       0.00255093      -0.00650574       0.00458976       1.00000000       1.50000000       2.00000000      -0.00694757      -0.01511315      -0.01862718      -0.00549276
2
Properties=species:S:1:pos:R:3:quaternions:R:4:old_torques:R:3:torques:R:3:c_diameter[1]:R:1:c_diameter[2]:R:1:c_diameter[3]:R:1:forces:R:3:energies:R:1 separation_distance=2.490851369952247 old_energy=-0.8113739173307122 distance=2.4908513716657397 gb_cutoff=5.0 gb_epsilon=1.0 gb_sigma=1.0 energy=-0.014747972484609727 pbc="F F F"
X       10.00000000      10.00000000      10.00000000       0.05390740       0.28674748      -0.69302737       0.65922904       0.01932851      -0.15155622      -0.77393361      -0.00680661       0.01882278      -0.00457631       1.00000000       1.50000000       2.00000000       0.06512033       0.03102897       0.02839022      -0.01474797
X       11.87499177      11.15820525      11.16073555       0.69408026      -0.70345470      -0.15164896      -0.02016598       0.04073961      -0.82836641      -0.52898705       0.00367188       0.00353326      -0.01266733       1.00000000       1.50000000       2.00000000      -0.06512033      -0.03102897      -0.02839022      -0.01474797
2
Properties=species:S:1:pos:R:3:quaternions:R:4:old_torques:R:3:torques:R:3:c_diameter[1]:R:1:c_diameter[2]:R:1:c_diameter[3]:R:1:forces:R:3:energies:R:1 separation_distance=3.2517089708041444 old_energy=-0.2759189491821043 distance=3.251708971913804 gb_cutoff=5.0 gb_epsilon=1.0 gb_sigma=1.0 energy=-0.005038708056021377 pbc="F F F"
X       10.00000000      10.00000000      10.00000000       0.85333495      -0.14624445      -0.17589939       0.46849912       0.22747008       0.13015002      -0.30402267      -0.00360591       0.00257637       0.00238295       1.00000000       1.50000000       2.00000000       0.01555842       0.01158225       0.01179912      -0.00503871
X       11.96369910      11.65472151      11.99484180       0.38728723       0.85855984       0.19531997      -0.27337468       0.19408320       0.22976575      -0.37708576       0.00002541       0.00529029      -0.00538374       1.00000000       1.50000000       2.00000000      -0.01555842      -0.01158225      -0.01179912      -0.00503871
2
Properties=species:S:1:pos:R:3:quaternions:R:4:old_torques:R:3:torques:R:3:c_diameter[1]:R:1:c_diameter[2]:R:1:c_diameter[3]:R:1:forces:R:3:energies:R:1 separation_distance=2.9140185516135704 old_energy=-0.12563026776864017 distance=2.914018556288503 gb_cutoff=5.0 gb_epsilon=1.0 gb_sigma=1.0 energy=-0.01431770566494974 pbc="F F F"
X       10.00000000      10.00000000      10.00000000       0.44496675       0.02239512      -0.78507018       0.43031136       0.00338049      -0.07403690       0.00453501       0.01540933      -0.01774313      -0.00706265       1.00000000       1.50000000       2.00000000       0.05029463       0.02337687       0.05286046      -0.01431771
X       11.99577726      11.24511899      11.71989999       0.44295042      -0.45055994       0.00646227       0.77507993      -0.04135126      -0.13882201      -0.12145852       0.01020235      -0.00125285      -0.00890512       1.00000000       1.50000000       2.00000000      -0.05029463      -0.02337687      -0.05286046      -0.01431771
2
Properties=species:S:1:pos:R:3:quaternions:R:4:old_torques:R:3:torques:R:3:c_diameter[1]:R:1:c_diameter[2]:R:1:c_diameter[3]:R:1:forces:R:3:energies:R:1 separation_distance=3.2881562284217507 old_energy=-0.21270775550244964 distance=3.288156230278883 gb_cutoff=5.0 gb_epsilon=1.0 gb_sigma=1.0 energy=-0.004932387332862114 pbc="F F F"
X       10.00000000      10.00000000      10.00000000       0.66879048       0.68083251       0.20675647      -0.21549513      -0.13010021      -0.21829087      -0.26604352       0.00456435       0.00169148      -0.00277412       1.00000000       1.50000000       2.00000000       0.01295449       0.01151999       0.01321854      -0.00493239
X       11.95429602      11.95004290      11.78606583       0.34534314      -0.67116390       0.07430053       0.65173351      -0.05978800      -0.73321966      -0.04083329       0.00063692      -0.00438685       0.00002578       1.00000000       1.50000000       2.00000000      -0.01295449      -0.01151999      -0.01321854      -0.00493239
2
Properties=species:S:1:pos:R:3:quaternions:R:4:old_torques:R:3:torques:R:3:c_diameter[1]:R:1:c_diameter[2]:R:1:c_diameter[3]:R:1:forces:R:3:energies:R:1 separation_distance=3.0348340058532703 old_energy=-0.21142984765886083 distance=3.0348340081380436 gb_cutoff=5.0 gb_epsilon=1.0 gb_sigma=1.0 energy=-0.006482747493886761 pbc="F F F"
X       10.00000000      10.00000000      10.00000000       0.57086856       0.75286502       0.29081202       0.15077038      -0.01062416       0.04140043      -0.07816219      -0.00318893       0.00754088      -0.00573915       1.00000000       1.50000000       2.00000000       0.01793418       0.01706019       0.01750578      -0.00648275
X       11.83597261      11.39402403      11.97385892       0.44036752      -0.47584841      -0.74090806       0.17521410      -0.19697573      -0.16619842      -0.26260888      -0.00608200      -0.00428147       0.01206052       1.00000000       1.50000000       2.00000000      -0.01793418      -0.01706019      -0.01750578      -0.00648275
2
Properties=species:S:1:pos:R:3:quaternions:R:4:old_torques:R:3:torques:R:3:c_diameter[1]:R:1:c_diameter[2]:R:1:c_diameter[3]:R:1:forces:R:3:energies:R:1 separation_distance=3.218086035349909 old_energy=-0.19319824073249003 distance=3.2180860406332 gb_cutoff=5.0 gb_epsilon=1.0 gb_sigma=1.0 energy=-0.0051155278965577256 pbc="F F F"
X       10.00000000      10.00000000      10.00000000       0.55186375       0.65315212      -0.44489137       0.26629004      -0.27002895       0.31922007       0.24453455       0.00886283      -0.00066191      -0.00609983       1.00000000       1.50000000       2.00000000       0.01174780       0.01369766       0.01436279      -0.00511553
X       11.80920238      11.99019517      11.76691474       0.15678570       0.69373226      -0.47991834      -0.51364597      -0.01194756       0.04187532       0.17352036      -0.00448068      -0.00456592       0.00750125       1.00000000       1.50000000       2.00000000      -0.01174780      -0.01369766      -0.01436279      -0.00511553
2
Properties=species:S:1:pos:R:3:quaternions:R:4:old_torques:R:3:torques:R:3:c_diameter[1]:R:1:c_diameter[2]:R:1:c_diameter[3]:R:1:forces:R:3:energies:R:1 separation_distance=3.2411506775039314 old_energy=-0.24886318978100613 distance=3.2411506805175136 gb_cutoff=5.0 gb_epsilon=1.0 gb_sigma=1.0 energy=-0.0052148640385279105 pbc="F F F"
X       10.00000000      10.00000000      10.00000000       0.30703307      -0.39833561      -0.86014433       0.08491857      -0.22997980      -0.27018383      -0.38265014      -0.00684942      -0.00391128       0.00789705       1.00000000       1.50000000       2.00000000       0.01088470       0.01546179       0.01385671      -0.00521486
X       11.75063664      11.87630309      11.97985247       0.20931308      -0.90909154       0.20424851      -0.29668696       0.10905772       0.40327455      -0.30730457       0.00223674       0.00120333      -0.00125207       1.00000000       1.50000000       2.00000000      -0.01088470      -0.01546179      -0.01385671      -0.00521486
2
Properties=species:S:1:pos:R:3:quaternions:R:4:old_torques:R:3:torques:R:3:c_diameter[1]:R:1:c_diameter[2]:R:1:c_diameter[3]:R:1:forces:R:3:energies:R:1 separation_distance=3.2474365912623027 old_energy=-0.11086931282511653 distance=3.247436589456252 gb_cutoff=5.0 gb_epsilon=1.0 gb_sigma=1.0 energy=-0.0036256796352304313 pbc="F F F"
X       10.00000000      10.00000000      10.00000000       0.32362765       0.44928185      -0.53898822      -0.63474614      -0.05078293       0.22832980       0.07190701      -0.00197475      -0.00019201       0.00400919       1.00000000       1.50000000       2.00000000       0.00927646       0.00956405       0.00736282      -0.00362568
X       11.99325610      11.74919448      11.87432473       0.63763091      -0.39829941       0.04012353       0.65815993      -0.00755148      -0.00950028      -0.14034396      -0.00307237       0.00290312      -0.00117193       1.00000000       1.50000000       2.00000000      -0.00927646      -0.00956405      -0.00736282      -0.00362568
2
Properties=species:S:1:pos:R:3:quaternions:R:4:old_torques:R:3:torques:R:3:c_diameter[1]:R:1:c_diameter[2]:R:1:c_diameter[3]:R:1:forces:R:3:energies:R:1 separation_distance=2.526353088510147 old_energy=-0.6686902447466647 distance=2.526353089413992 gb_cutoff=5.0 gb_epsilon=1.0 gb_sigma=1.0 energy=-0.01568815541908822 pbc="F F F"
X       10.00000000      10.00000000      10.00000000       0.73843890      -0.25845140      -0.23342172       0.57742979       0.06763431       0.22448686      -0.71244925      -0.02064154       0.01114062       0.00313715       1.00000000       1.50000000       2.00000000       0.04141110       0.05400234       0.05043205      -0.01568816
X       11.40569587      11.28903269      11.65676606       0.78622447       0.12027283       0.40060584      -0.45486315      -0.05356836      -0.12750506      -0.26304282      -0.00381914      -0.01342425       0.01939346       1.00000000       1.50000000       2.00000000      -0.04141110      -0.05400234      -0.05043205      -0.01568816
2
Properties=species:S:1:pos:R:3:quaternions:R:4:old_torques:R:3:torques:R:3:c_diameter[1]:R:1:c_diameter[2]:R:1:c_diameter[3]:R:1:forces:R:3:energies:R:1 separation_distance=2.797297639936645 old_energy=-0.3687639279431307 distance=2.7972976427574885 gb_cutoff=5.0 gb_epsilon=1.0 gb_sigma=1.0 energy=-0.008263368237249491 pbc="F F F"
X       10.00000000      10.00000000      10.00000000       0.09264844      -0.92106096      -0.32231773      -0.19792489      -0.07570694       0.79145722       0.09944298      -0.00545643       0.00406762       0.00074844       1.00000000       1.50000000       2.00000000       0.02618742       0.01696510       0.02458010      -0.00826337
X       11.75071956      11.00137876      11.93832291       0.62064503      -0.33007177      -0.12195736       0.70069877      -0.09041445      -0.16232975      -0.54318167      -0.00281342       0.00365921       0.00272916       1.00000000       1.50000000       2.00000000      -0.02618742      -0.01696510      -0.02458010      -0.00826337
2
Properties=species:S:1:pos:R:3:quaternions:R:4:old_torques:R:3:torques:R:3:c_diameter[1]:R:1:c_diameter[2]:R:1:c_diameter[3]:R:1:forces:R:3:energies:R:1 separation_distance=3.2654485735068257 old_energy=-0.09681783069554893 distance=3.2654485718076023 gb_cutoff=5.0 gb_epsilon=1.0 gb_sigma=1.0 energy=-0.00443114013658349 pbc="F F F"
X       10.00000000      10.00000000      10.00000000       0.19665160       0.16223085      -0.70413650       0.66272248       0.03664961      -0.12448905       0.09353435       0.00233961       0.00245458      -0.00574009       1.00000000       1.50000000       2.00000000       0.01340335       0.01059522       0.00944489      -0.00443114
X       11.98523671      11.89612579      11.76824675       0.71199347      -0.31776063      -0.08860925       0.61987248      -0.02833720      -0.04088310      -0.11183314      -0.00316587       0.00249550       0.00135968       1.00000000       1.50000000       2.00000000      -0.01340335      -0.01059522      -0.00944489      -0.00443114
2
Properties=species:S:1:pos:R:3:quaternions:R:4:old_torques:R:3:torques:R:3:c_diameter[1]:R:1:c_diameter[2]:R:1:c_diameter[3]:R:1:forces:R:3:energies:R:1 separation_distance=3.214823356784759 old_energy=-0.06910770142703686 distance=3.2148233578481187 gb_cutoff=5.0 gb_epsilon=1.0 gb_sigma=1.0 energy=-0.004950969726652877 pbc="F F F"
X       10.00000000      10.00000000      10.00000000       0.20131507      -0.89723856      -0.37392361      -0.12089809      -0.01689684       0.14595026       0.02507209       0.00000228       0.00076952      -0.00070348       1.00000000       1.50000000       2.00000000       0.01345599       0.01453477       0.01005338      -0.00495097
X       11.87721409      11.94167809      11.74385856       0.39059371       0.34839832      -0.84887480       0.07393736      -0.00188375       0.10727341       0.00192970      -0.00582844       0.00382347       0.00186116       1.00000000       1.50000000       2.00000000      -0.01345599      -0.01453477      -0.01005338      -0.00495097
2
Properties=species:S:1:pos:R:3:quaternions:R:4:old_torques:R:3:torques:R:3:c_diameter[1]:R:1:c_diameter[2]:R:1:c_diameter[3]:R:1:forces:R:3:energies:R:1 separation_distance=2.7534490901494433 old_energy=-0.6175211084461036 distance=2.7534490850316407 gb_cutoff=5.0 gb_epsilon=1.0 gb_sigma=1.0 energy=-0.005928343048405179 pbc="F F F"
X       10.00000000      10.00000000      10.00000000       0.04993914      -0.38648058       0.03380781       0.92032379      -0.02440812      -0.04328258       0.07737086       0.00310272      -0.00039387      -0.00386250       1.00000000       1.50000000       2.00000000       0.01811773       0.01053818       0.01657933      -0.00592834
X       11.91551865      11.07217433      11.66214090       0.73358296      -0.49731982      -0.44882687       0.11438300       0.11815504      -0.03398197      -0.01370221      -0.00284272      -0.00124992       0.00462321       1.00000000       1.50000000       2.00000000      -0.01811773      -0.01053818      -0.01657933      -0.00592834
2
Properties=species:S:1:pos:R:3:quaternions:R:4:old_torques:R:3:torques:R:3:c_diameter[1]:R:1:c_diameter[2]:R:1:c_diameter[3]:R:1:forces:R:3:energies:R:1 separation_distance=2.4933774138669578 old_energy=-0.4235376138171428 distance=2.4933774102797073 gb_cutoff=5.0 gb_epsilon=1.0 gb_sigma=1.0 energy=-0.04525301440542456 pbc="F F F"
X       10.00000000      10.00000000      10.00000000       0.72405626      -0.53208208       0.22276829      -0.37816066      -0.01168439       0.37623221      -0.04880224       0.07356497      -0.03875502      -0.03397611       1.00000000       1.50000000       2.00000000       0.15891509       0.07826739       0.23009458      -0.04525301
X       11.33471158      11.21803531      11.71809950       0.49940315      -0.77910830      -0.06791557      -0.37279246      -0.00169908       0.13226678       0.27655577       0.07222718       0.00467706      -0.05512368       1.00000000       1.50000000       2.00000000      -0.15891509      -0.07826739      -0.23009458      -0.04525301
2
Properties=species:S:1:pos:R:3:quaternions:R:4:old_torques:R:3:torques:R:3:c_diameter[1]:R:1:c_diameter[2]:R:1:c_diameter[3]:R:1:forces:R:3:energies:R:1 separation_distance=2.9747095592239856 old_energy=-0.5290686669083716 distance=2.974709558429847 gb_cutoff=5.0 gb_epsilon=1.0 gb_sigma=1.0 energy=-0.006620136329077717 pbc="F F F"
X       10.00000000      10.00000000      10.00000000       0.77030257       0.56586534       0.27002967       0.11625127       0.01733778      -1.08111158      -0.01251600      -0.00312746       0.00627299       0.00081367       1.00000000       1.50000000       2.00000000       0.02058833       0.01630511       0.01625822      -0.00662014
X       11.93163219      11.50704565      11.68715958       0.45717212       0.42000100       0.77838646       0.09331304      -0.60823405       0.85019002       0.44313850       0.00012001      -0.00294209      -0.00034575       1.00000000       1.50000000       2.00000000      -0.02058833      -0.01630511      -0.01625822      -0.00662014
2
Properties=species:S:1:pos:R:3:quaternions:R:4:old_torques:R:3:torques:R:3:c_diameter[1]:R:1:c_diameter[2]:R:1:c_diameter[3]:R:1:forces:R:3:energies:R:1 separation_distance=2.92397756593408 old_energy=-0.6400592047842337 distance=2.92397756000462 gb_cutoff=5.0 gb_epsilon=1.0 gb_sigma=1.0 energy=-0.009634778248729717 pbc="F F F"
X       10.00000000      10.00000000      10.00000000       0.75507753       0.05685543       0.13874791       0.63825888       0.52580807       0.74560217      -0.38001687      -0.01962603       0.00865477       0.00712514       1.00000000       1.50000000       2.00000000       0.02368470       0.03176527       0.02720059      -0.00963478
X       11.49189786      11.77878803      11.77758226       0.68647791       0.38090403       0.44362171      -0.43227304       0.01216049       0.41864896      -0.09230582       0.01154472      -0.00713376      -0.00186467       1.00000000       1.50000000       2.00000000      -0.02368470      -0.03176527      -0.02720059      -0.00963478
2
Properties=species:S:1:pos:R:3:quaternions:R:4:old_torques:R:3:torques:R:3:c_diameter[1]:R:1:c_diameter[2]:R:1:c_diameter[3]:R:1:forces:R:3:energies:R:1 separation_distance=2.783044372683732 old_energy=-0.4534675442723633 distance=2.7830443772784608 gb_cutoff=5.0 gb_epsilon=1.0 gb_sigma=1.0 energy=-0.029540286959896755 pbc="F F F"
X       10.00000000      10.00000000      10.00000000       0.53416488      -0.05591107      -0.68419792       0.49337110      -0.00182116      -0.19980401      -0.32690861       0.02199562      -0.06295081       0.02202575       1.00000000       1.50000000       2.00000000       0.08655536       0.08384414       0.12926283      -0.02954029
X       11.54467418      11.57217096      11.69929284       0.66142996      -0.21667217       0.35193561       0.62586332       0.13543085       0.16747981      -0.51710869       0.03875189       0.01036476      -0.02859370       1.00000000       1.50000000       2.00000000      -0.08655536      -0.08384414      -0.12926283      -0.02954029
2
Properties=species:S:1:pos:R:3:quaternions:R:4:old_torques:R:3:torques:R:3:c_diameter[1]:R:1:c_diameter[2]:R:1:c_diameter[3]:R:1:forces:R:3:energies:R:1 separation_distance=2.6684228262870335 old_energy=-0.6407567667280456 distance=2.668422827822355 gb_cutoff=5.0 gb_epsilon=1.0 gb_sigma=1.0 energy=-0.011051873689394745 pbc="F F F"
X       10.00000000      10.00000000      10.00000000       0.03195461      -0.42028825       0.21111149       0.88191192       0.05456100      -0.43681409       0.41895517       0.00674658       0.00044535      -0.00821110       1.00000000       1.50000000       2.00000000       0.03171843       0.03296763       0.03270981      -0.01105187
X       11.28517121      11.74527869      11.55654028       0.87505523       0.45210107       0.14839989      -0.08865916      -0.24389763      -1.40722377      -0.31590559      -0.00097428       0.00688795      -0.00477736       1.00000000       1.50000000       2.00000000      -0.03171843      -0.03296763      -0.03270981      -0.01105187
2
Properties=species:S:1:pos:R:3:quaternions:R:4:old_torques:R:3:torques:R:3:c_diameter[1]:R:1:c_diameter[2]:R:1:c_diameter[3]:R:1:forces:R:3:energies:R:1 separation_distance=2.840766934880159 old_energy=-0.5078553309361952 distance=2.840766937179889 gb_cutoff=5.0 gb_epsilon=1.0 gb_sigma=1.0 energy=-0.031037489820504027 pbc="F F F"
X       10.00000000      10.00000000      10.00000000       0.58515580      -0.53506621      -0.03981665      -0.60803904       0.10176912       1.05609821       0.73916307       0.01477620      -0.02009554       0.02448244       1.00000000       1.50000000       2.00000000       0.05554077       0.13104073       0.11820949      -0.03103749
X       11.08081720      11.80198439      11.91171212       0.07806483      -0.25820545      -0.96283966       0.01325217       3.47980876       0.33503865       0.27285319      -0.05227670      -0.00148935       0.01706504       1.00000000       1.50000000       2.00000000      -0.05554077      -0.13104073      -0.11820949      -0.03103749
2
Properties=species:S:1:pos:R:3:quaternions:R:4:old_torques:R:3:torques:R:3:c_diameter[1]:R:1:c_diameter[2]:R:1:c_diameter[3]:R:1:forces:R:3:energies:R:1 separation_distance=2.5829813650116233 old_energy=-0.804266782184004 distance=2.58298136396364 gb_cutoff=5.0 gb_epsilon=1.0 gb_sigma=1.0 energy=-0.021195708212981095 pbc="F F F"
X       10.00000000      10.00000000      10.00000000       0.46723834       0.05116840      -0.52944109       0.70623102       0.01746324      -0.49916822      -0.02305694       0.00019125      -0.01365280       0.00650904       1.00000000       1.50000000       2.00000000       0.06795592       0.03268349       0.09318630      -0.02119571
X       11.28053624      11.05695732      11.97860074       0.23128934      -0.14201087       0.52315138       0.80786805       0.01703393      -0.66698113       0.24571522       0.03363512       0.02878200      -0.03648316       1.00000000       1.50000000       2.00000000      -0.06795592      -0.03268349      -0.09318630      -0.02119571
2
Properties=species:S:1:pos:R:3:quaternions:R:4:old_torques:R:3:torques:R:3:c_diameter[1]:R:1:c_diameter[2]:R:1:c_diameter[3]:R:1:forces:R:3:energies:R:1 separation_distance=2.8287622484136694 old_energy=-0.5633296705138734 distance=2.8287622492051128 gb_cutoff=5.0 gb_epsilon=1.0 gb_sigma=1.0 energy=-0.009760584534684109 pbc="F F F"
X       10.00000000      10.00000000      10.00000000       0.38248944      -0.88032391       0.06407075      -0.27317865      -0.03612956       1.24465796       0.09554446       0.00994831       0.00035853      -0.00672336       1.00000000       1.50000000       2.00000000       0.02592041       0.02708248       0.03140437      -0.00976058
X       11.79091340      11.51078791      11.58494320       0.74298721      -0.09964425       0.57186083      -0.33319096       0.33814382       1.32849459      -0.40923996      -0.00542715      -0.01551867       0.01606549       1.00000000       1.50000000       2.00000000      -0.02592041      -0.02708248      -0.03140437      -0.00976058
2
Properties=species:S:1:pos:R:3:quaternions:R:4:old_torques:R:3:torques:R:3:c_diameter[1]:R:1:c_diameter[2]:R:1:c_diameter[3]:R:1:forces:R:3:energies:R:1 separation_distance=2.8158641397902415 old_energy=-0.483783607902602 distance=2.8158641368266415 gb_cutoff=5.0 gb_epsilon=1.0 gb_sigma=1.0 energy=-0.014773906419817493 pbc="F F F"
X       10.00000000      10.00000000      10.00000000       0.72424572       0.17889839       0.53090827       0.40199493       0.39937841      -0.45658138       0.63433556       0.00235768      -0.01821368       0.01304849       1.00000000       1.50000000       2.00000000       0.02564550       0.04004061       0.06328239      -0.01477391
X       11.11528621      11.65182962      11.98914213       0.42283469      -0.80100875      -0.08615385      -0.41493773      -0.03598775       0.23030178       0.27674107       0.02252757      -0.00135176      -0.01075374       1.00000000       1.50000000       2.00000000      -0.02564550      -0.04004061      -0.06328239      -0.01477391
2
Properties=species:S:1:pos:R:3:quaternions:R:4:old_torques:R:3:torques:R:3:c_diameter[1]:R:1:c_diameter[2]:R:1:c_diameter[3]:R:1:forces:R:3:energies:R:1 separation_distance=2.664524979368891 old_energy=-0.3143419556750908 distance=2.664524983468931 gb_cutoff=5.0 gb_epsilon=1.0 gb_sigma=1.0 energy=-0.01152776756250203 pbc="F F F"
X       10.00000000      10.00000000      10.00000000       0.85137012       0.41252240       0.22296914      -0.23511477      -0.03846634      -0.25923892      -0.20356281      -0.00351749       0.00068795       0.00009498       1.00000000       1.50000000       2.00000000       0.03579311       0.02776083       0.03647853      -0.01152777
X       11.55246928      11.33185425      11.70754115       0.34414746      -0.88141192      -0.23571731      -0.22161430      -0.02257160       0.28593398       0.14764493       0.00469881       0.00379846      -0.00466834       1.00000000       1.50000000       2.00000000      -0.03579311      -0.02776083      -0.03647853      -0.01152777
2
Properties=species:S:1:pos:R:3:quaternions:R:4:old_torques:R:3:torques:R:3:c_diameter[1]:R:1:c_diameter[2]:R:1:c_diameter[3]:R:1:forces:R:3:energies:R:1 separation_distance=2.641766425968896 old_energy=-0.6180474670568404 distance=2.641766424657282 gb_cutoff=5.0 gb_epsilon=1.0 gb_sigma=1.0 energy=-0.021652496903908334 pbc="F F F"
X       10.00000000      10.00000000      10.00000000       0.07768125      -0.16770404       0.82234275       0.53813881       0.04139571       0.16993735      -0.66113933       0.01756098      -0.00106584      -0.03390163       1.00000000       1.50000000       2.00000000       0.08949070       0.07032542       0.04752053      -0.02165250
X       11.80361619      11.49706468      11.21848095       0.37514279       0.53451060      -0.74762786      -0.12090863      -0.25418652       0.76688250       0.58295700      -0.03210986       0.02439975       0.02676833       1.00000000       1.50000000       2.00000000      -0.08949070      -0.07032542      -0.04752053      -0.02165250
2
Properties=species:S:1:pos:R:3:quaternions:R:4:old_torques:R:3:torques:R:3:c_diameter[1]:R:1:c_diameter[2]:R:1:c_diameter[3]:R:1:forces:R:3:energies:R:1 separation_distance=3.396645670557967 old_energy=-0.3347884233480018 distance=3.396645673313827 gb_cutoff=5.0 gb_epsilon=1.0 gb_sigma=1.0 energy=-0.002008279229008919 pbc="F F F"
X       10.00000000      10.00000000      10.00000000       0.45079968       0.33559303      -0.09450832       0.82172084      -0.36330469       1.07719190       0.28428209      -0.00091141      -0.00132115       0.00187599       1.00000000       1.50000000       2.00000000       0.00375404       0.00504920       0.00429743      -0.00200828
X       11.99443156      11.98252448      11.90500427       0.78361708       0.02673510      -0.30122292       0.54267326       0.19620687       0.38636271      -0.46138192      -0.00018759      -0.00009830       0.00075181       1.00000000       1.50000000       2.00000000      -0.00375404      -0.00504920      -0.00429743      -0.00200828
2
Properties=species:S:1:pos:R:3:quaternions:R:4:old_torques:R:3:torques:R:3:c_diameter[1]:R:1:c_diameter[2]:R:1:c_diameter[3]:R:1:forces:R:3:energies:R:1 separation_distance=2.9154407246535072 old_energy=-0.499406279727817 distance=2.9154407218109544 gb_cutoff=5.0 gb_epsilon=1.0 gb_sigma=1.0 energy=-0.011326207920302383 pbc="F F F"
X       10.00000000      10.00000000      10.00000000       0.01386254      -0.16268642       0.54354865      -0.82334429      -0.16735483       0.09136183      -0.78256311      -0.00644411       0.01247276       0.00392688       1.00000000       1.50000000       2.00000000       0.03848688       0.01740343       0.03921402      -0.01132621
X       11.80450187      11.13210362      11.99045447       0.47016471       0.56246329      -0.62927417       0.25805854       0.61491815      -0.99641263      -1.05916470       0.01619770      -0.00662815      -0.01609350       1.00000000       1.50000000       2.00000000      -0.03848688      -0.01740343      -0.03921402      -0.01132621
2
Properties=species:S:1:pos:R:3:quaternions:R:4:old_torques:R:3:torques:R:3:c_diameter[1]:R:1:c_diameter[2]:R:1:c_diameter[3]:R:1:forces:R:3:energies:R:1 separation_distance=2.86826657791885 old_energy=-0.3749871558566731 distance=2.8682665753807712 gb_cutoff=5.0 gb_epsilon=1.0 gb_sigma=1.0 energy=-0.033003581745857276 pbc="F F F"
X       10.00000000      10.00000000      10.00000000       0.53413407       0.80607167       0.14407729      -0.21021652      -0.24249766      -0.41873959      -0.50782431       0.01955856       0.03589071      -0.05378588       1.00000000       1.50000000       2.00000000       0.13423823       0.10569880       0.10364006      -0.03300358
X       11.61362131      11.95666778      11.33963824       0.51568610      -0.55596695      -0.17337378      -0.62841875      -0.11621532      -0.85172959      -0.23141554       0.04163246      -0.02329585      -0.03831591       1.00000000       1.50000000       2.00000000      -0.13423823      -0.10569880      -0.10364006      -0.03300358
2
Properties=species:S:1:pos:R:3:quaternions:R:4:old_torques:R:3:torques:R:3:c_diameter[1]:R:1:c_diameter[2]:R:1:c_diameter[3]:R:1:forces:R:3:energies:R:1 separation_distance=2.714643422021455 old_energy=-0.721941926477086 distance=2.714643418442423 gb_cutoff=5.0 gb_epsilon=1.0 gb_sigma=1.0 energy=-0.03768644387993388 pbc="F F F"
X       10.00000000      10.00000000      10.00000000       0.50137856      -0.23301584       0.14948746       0.81974182       0.11389648       0.17043080      -0.33111787       0.00908059       0.03064481      -0.03615643       1.00000000       1.50000000       2.00000000       0.18717813       0.10019498       0.09605605      -0.03768644
X       11.90311492      11.48913850      11.23689491       0.82581395      -0.44324585       0.32708724      -0.12074090      -0.17196893       0.42798930       0.18182759       0.01002951       0.01806917      -0.05189518       1.00000000       1.50000000       2.00000000      -0.18717813      -0.10019498      -0.09605605      -0.03768644
2
Properties=species:S:1:pos:R:3:quaternions:R:4:old_torques:R:3:torques:R:3:c_diameter[1]:R:1:c_diameter[2]:R:1:c_diameter[3]:R:1:forces:R:3:energies:R:1 separation_distance=2.9726204198808857 old_energy=-0.6199254011630878 distance=2.972620422990775 gb_cutoff=5.0 gb_epsilon=1.0 gb_sigma=1.0 energy=-0.008593074127129108 pbc="F F F"
X       10.00000000      10.00000000      10.00000000       0.12332175      -0.47341267      -0.15357580       0.85853751      -0.07005249       2.62421942      -0.38494590       0.00929653      -0.01030960      -0.00305887       1.00000000       1.50000000       2.00000000       0.02843437       0.02181578       0.02271154      -0.00859307
X       11.82069948      11.94588959      11.31720890       0.71197140      -0.68934102       0.10721747       0.08006304       1.05281925      -2.07357453      -1.02305140       0.00616168       0.00641272      -0.01255130       1.00000000       1.50000000       2.00000000      -0.02843437      -0.02181578      -0.02271154      -0.00859307
2
Properties=species:S:1:pos:R:3:quaternions:R:4:old_torques:R:3:torques:R:3:c_diameter[1]:R:1:c_diameter[2]:R:1:c_diameter[3]:R:1:forces:R:3:energies:R:1 separation_distance=2.9299307828885057 old_energy=-0.638624243952506 distance=2.929930781614493 gb_cutoff=5.0 gb_epsilon=1.0 gb_sigma=1.0 energy=-0.013836252093721501 pbc="F F F"
X       10.00000000      10.00000000      10.00000000       0.43944698       0.11856230      -0.84324442       0.28595135       0.06960126       0.16425499      -0.06853096       0.00117292      -0.00010260      -0.00241241       1.00000000       1.50000000       2.00000000       0.05091422       0.03826205       0.03652143      -0.01383625
X       11.92051805      11.39610395      11.71668243       0.44551680       0.06878413      -0.05245801      -0.89108455      -0.34920063       0.05010371       0.06137586      -0.01586900       0.01736608       0.00481383       1.00000000       1.50000000       2.00000000      -0.05091422      -0.03826205      -0.03652143      -0.01383625
2
Properties=species:S:1:pos:R:3:quaternions:R:4:old_torques:R:3:torques:R:3:c_diameter[1]:R:1:c_diameter[2]:R:1:c_diameter[3]:R:1:forces:R:3:energies:R:1 separation_distance=2.7177094152134353 old_energy=-0.5734569691152185 distance=2.7177094145307987 gb_cutoff=5.0 gb_epsilon=1.0 gb_sigma=1.0 energy=-0.028180418585645614 pbc="F F F"
X       10.00000000      10.00000000      10.00000000       0.48890299      -0.43721758      -0.24176484      -0.71509749       0.53452175       5.89146372       1.38136480       0.04092770      -0.01450386      -0.02105634       1.00000000       1.50000000       2.00000000       0.08546156       0.09068217       0.11436404      -0.02818042
X       11.52682546      11.79809157      11.34967225       0.52427034       0.51133268       0.26994280      -0.62514829       0.14611712       0.22634343       3.03715036       0.04231810      -0.04476496       0.00584447       1.00000000       1.50000000       2.00000000      -0.08546156      -0.09068217      -0.11436404      -0.02818042
2
Properties=species:S:1:pos:R:3:quaternions:R:4:old_torques:R:3:torques:R:3:c_diameter[1]:R:1:c_diameter[2]:R:1:c_diameter[3]:R:1:forces:R:3:energies:R:1 separation_distance=2.3294741453313965 old_energy=-0.845821140078984 distance=2.3294741475846648 gb_cutoff=5.0 gb_epsilon=1.0 gb_sigma=1.0 energy=-0.058262582871803636 pbc="F F F"
X       10.00000000      10.00000000      10.00000000       0.41004447      -0.04835418      -0.71622882       0.56262037      -0.01184742      -0.43061079      -0.25320024       0.07919350      -0.08979831       0.00429764       1.00000000       1.50000000       2.00000000       0.22937821       0.22455002       0.21719422      -0.05826258
X       11.32466955      11.62736073      11.01163108       0.04584084      -0.38557201       0.36553863       0.84593992      -0.06905366       0.31182117       0.27035995       0.04709806       0.03413387      -0.08012416       1.00000000       1.50000000       2.00000000      -0.22937821      -0.22455002      -0.21719422      -0.05826258
2
Properties=species:S:1:pos:R:3:quaternions:R:4:old_torques:R:3:torques:R:3:c_diameter[1]:R:1:c_diameter[2]:R:1:c_diameter[3]:R:1:forces:R:3:energies:R:1 separation_distance=2.615304723044736 old_energy=-0.7798464756595872 distance=2.615304721795416 gb_cutoff=5.0 gb_epsilon=1.0 gb_sigma=1.0 energy=-0.019322045265099775 pbc="F F F"
X       10.00000000      10.00000000      10.00000000       0.36194592       0.45721870       0.78035937      -0.22579961       0.12740365      -3.37821460      -0.46376635       0.02545927       0.01731504      -0.03064234       1.00000000       1.50000000       2.00000000       0.05443683       0.05524210       0.07681400      -0.01932205
X       11.09198749      11.79871419      11.55306451       0.38495284      -0.50251288       0.58642479       0.50536926      -0.03656353       0.05276945       0.78380201       0.02691262      -0.01665106      -0.00695028       1.00000000       1.50000000       2.00000000      -0.05443683      -0.05524210      -0.07681400      -0.01932205
2
Properties=species:S:1:pos:R:3:quaternions:R:4:old_torques:R:3:torques:R:3:c_diameter[1]:R:1:c_diameter[2]:R:1:c_diameter[3]:R:1:forces:R:3:energies:R:1 separation_distance=3.108148423496876 old_energy=-0.5902738733147829 distance=3.1081484198948295 gb_cutoff=5.0 gb_epsilon=1.0 gb_sigma=1.0 energy=-0.0032035360951507444 pbc="F F F"
X       10.00000000      10.00000000      10.00000000       0.45504316       0.11915660       0.72096682      -0.50886567      -0.17285589      -0.60472050       0.14060645       0.00156764       0.00045945      -0.00087779       1.00000000       1.50000000       2.00000000       0.00677545       0.00681217       0.00891566      -0.00320354
X       11.54102466      11.90730252      11.90998081       0.03615385      -0.85615153       0.12648913      -0.49969787      -0.07599542      -0.15705747       0.33733629       0.00242612      -0.00125772      -0.00154732       1.00000000       1.50000000       2.00000000      -0.00677545      -0.00681217      -0.00891566      -0.00320354
2
Properties=species:S:1:pos:R:3:quaternions:R:4:old_torques:R:3:torques:R:3:c_diameter[1]:R:1:c_diameter[2]:R:1:c_diameter[3]:R:1:forces:R:3:energies:R:1 separation_distance=2.744314529636244 old_energy=-0.21786863219326458 distance=2.7443145293658913 gb_cutoff=5.0 gb_epsilon=1.0 gb_sigma=1.0 energy=-0.02168848652348406 pbc="F F F"
X       10.00000000      10.00000000      10.00000000       0.64202127       0.54386501       0.52170186      -0.14087837       0.00150105       0.09402573      -0.06393801       0.01392612      -0.00161897      -0.01170742       1.00000000       1.50000000       2.00000000       0.06701475       0.06099225       0.08497254      -0.02168849
X       11.74585485      11.60436896      11.38175733       0.60066501       0.12697405      -0.70482564       0.35538703       0.03370577       0.26796682      -0.14790540       0.03812469      -0.05413263       0.01067465       1.00000000       1.50000000       2.00000000      -0.06701475      -0.06099225      -0.08497254      -0.02168849
2
Properties=species:S:1:pos:R:3:quaternions:R:4:old_torques:R:3:torques:R:3:c_diameter[1]:R:1:c_diameter[2]:R:1:c_diameter[3]:R:1:forces:R:3:energies:R:1 separation_distance=2.6719645452636525 old_energy=-0.65215515471338 distance=2.671964544747622 gb_cutoff=5.0 gb_epsilon=1.0 gb_sigma=1.0 energy=-0.01477624929786941 pbc="F F F"
X       10.00000000      10.00000000      10.00000000       0.38521966      -0.80866649      -0.08518749      -0.43635698      -0.04468266       0.10209322      -0.02621705       0.02326201      -0.01138384      -0.01134942       1.00000000       1.50000000       2.00000000       0.04937589       0.03034839       0.05257927      -0.01477625
X       11.79396394      11.16679210      11.59990128       0.17689625      -0.41623191      -0.81788393      -0.35570294      -0.15987937       0.03951927       0.02023616      -0.01046736      -0.00394493       0.00818193       1.00000000       1.50000000       2.00000000      -0.04937589      -0.03034839      -0.05257927      -0.01477625
2
Properties=species:S:1:pos:R:3:quaternions:R:4:old_torques:R:3:torques:R:3:c_diameter[1]:R:1:c_diameter[2]:R:1:c_diameter[3]:R:1:forces:R:3:energies:R:1 separation_distance=2.8503388128796425 old_energy=-0.3055936054581621 distance=2.8503388113032617 gb_cutoff=5.0 gb_epsilon=1.0 gb_sigma=1.0 energy=-0.012042326176270709 pbc="F F F"
X       10.00000000      10.00000000      10.00000000       0.16595549      -0.40653847      -0.30959762       0.84340652       0.02106939      -0.09857800       0.31691782       0.00586184       0.00095814      -0.00287604       1.00000000       1.50000000       2.00000000       0.01664315       0.03992113       0.04471553      -0.01204233
X       11.18164036      11.80140549      11.86630535       0.78490499      -0.33215994       0.49967235      -0.15466571      -0.12450967       0.67989795       0.27092269       0.00018394      -0.02273462       0.02006741       1.00000000       1.50000000       2.00000000      -0.01664315      -0.03992113      -0.04471553      -0.01204233
2
Properties=species:S:1:pos:R:3:quaternions:R:4:old_torques:R:3:torques:R:3:c_diameter[1]:R:1:c_diameter[2]:R:1:c_diameter[3]:R:1:forces:R:3:energies:R:1 separation_distance=2.995905839375521 old_energy=-0.17015412647282796 distance=2.99590584096414 gb_cutoff=5.0 gb_epsilon=1.0 gb_sigma=1.0 energy=-0.013916892739499354 pbc="F F F"
X       10.00000000      10.00000000      10.00000000       0.45980249       0.53175373       0.59598508       0.38809975       0.04694753      -0.08324286       0.24873197      -0.00947842      -0.00486297       0.01783063       1.00000000       1.50000000       2.00000000       0.03681175       0.04654248       0.04298279      -0.01391689
X       11.78956416      11.74050981      11.65636274       0.75725955      -0.55273045       0.21254188      -0.27545047      -0.03730343       0.19458041       0.12959063       0.00719916      -0.01108387       0.00138891       1.00000000       1.50000000       2.00000000      -0.03681175      -0.04654248      -0.04298279      -0.01391689
2
Properties=species:S:1:pos:R:3:quaternions:R:4:old_torques:R:3:torques:R:3:c_diameter[1]:R:1:c_diameter[2]:R:1:c_diameter[3]:R:1:forces:R:3:energies:R:1 separation_distance=2.6662039244411675 old_energy=-0.37547052682011267 distance=2.6662039232114063 gb_cutoff=5.0 gb_epsilon=1.0 gb_sigma=1.0 energy=-0.03025641546735692 pbc="F F F"
X       10.00000000      10.00000000      10.00000000       0.41861133       0.11350643      -0.61595256       0.65763461       0.01326275      -0.02775118       0.35266350       0.01245756      -0.03488912       0.00789022       1.00000000       1.50000000       2.00000000       0.08373386       0.05274743       0.15369105      -0.03025642
X       11.47191863      11.16613157      11.89267960       0.43917855       0.48822068      -0.72184797       0.21839934      -0.13552061       0.39396593       0.45353589       0.06693244      -0.03285023      -0.02789499       1.00000000       1.50000000       2.00000000      -0.08373386      -0.05274743      -0.15369105      -0.03025642
2
Properties=species:S:1:pos:R:3:quaternions:R:4:old_torques:R:3:torques:R:3:c_diameter[1]:R:1:c_diameter[2]:R:1:c_diameter[3]:R:1:forces:R:3:energies:R:1 separation_distance=3.2471268788614087 old_energy=-0.08928839109875183 distance=3.247126878618839 gb_cutoff=5.0 gb_epsilon=1.0 gb_sigma=1.0 energy=-0.0032310341887587172 pbc="F F F"
X       10.00000000      10.00000000      10.00000000       0.96056875       0.19230128       0.06147131      -0.19117836      -0.00973118      -0.26015601      -0.01258840      -0.00105869       0.00186697      -0.00113040       1.00000000       1.50000000       2.00000000       0.00823143       0.00812476       0.00684211      -0.00323103
X       11.68013528      11.97372403      11.95586090       0.42361839       0.83546543       0.29598604       0.18691504       0.00328726      -0.11884146       0.01757212      -0.00132779       0.00273690      -0.00146547       1.00000000       1.50000000       2.00000000      -0.00823143      -0.00812476      -0.00684211      -0.00323103
2
Properties=species:S:1:pos:R:3:quaternions:R:4:old_torques:R:3:torques:R:3:c_diameter[1]:R:1:c_diameter[2]:R:1:c_diameter[3]:R:1:forces:R:3:energies:R:1 separation_distance=3.1295042160870383 old_energy=-0.228620123905973 distance=3.1295042183300827 gb_cutoff=5.0 gb_epsilon=1.0 gb_sigma=1.0 energy=-0.005424855885487994 pbc="F F F"
X       10.00000000      10.00000000      10.00000000       0.19361927       0.69416251      -0.62367514      -0.30278591       0.00319742      -0.03039429       0.15379546      -0.00884417      -0.00126092       0.00735516       1.00000000       1.50000000       2.00000000       0.01057235       0.01597591       0.01543860      -0.00542486
X       11.44183157      11.96584570      11.96223573       0.39911241       0.65893209      -0.34676932       0.53504096      -0.28209720       0.17420880       0.21157880       0.00784557      -0.00025350      -0.00510419       1.00000000       1.50000000       2.00000000      -0.01057235      -0.01597591      -0.01543860      -0.00542486
2
Properties=species:S:1:pos:R:3:quaternions:R:4:old_torques:R:3:torques:R:3:c_diameter[1]:R:1:c_diameter[2]:R:1:c_diameter[3]:R:1:forces:R:3:energies:R:1 separation_distance=2.905912736593211 old_energy=-0.5583290518949064 distance=2.905912737711907 gb_cutoff=5.0 gb_epsilon=1.0 gb_sigma=1.0 energy=-0.0069434723168995925 pbc="F F F"
X       10.00000000      10.00000000      10.00000000       0.04152250      -0.68896805      -0.54032582      -0.48129711       0.06692188      -0.44253375       0.25711045       0.00149132      -0.00707086       0.00553070       1.00000000       1.50000000       2.00000000       0.01501049       0.01856747       0.02165301      -0.00694347
X       11.45208803      11.69179708      11.86375745       0.13133647       0.12456017       0.93123060       0.31629900      -0.24720779       0.06014608       0.02334198       0.00053592       0.00360470      -0.00396380       1.00000000       1.50000000       2.00000000      -0.01501049      -0.01856747      -0.02165301      -0.00694347
2
Properties=species:S:1:pos:R:3:quaternions:R:4:old_torques:R:3:torques:R:3:c_diameter[1]:R:1:c_diameter[2]:R:1:c_diameter[3]:R:1:forces:R:3:energies:R:1 separation_distance=3.1073146477465814 old_energy=-0.17755158944021454 distance=3.1073146451911047 gb_cutoff=5.0 gb_epsilon=1.0 gb_sigma=1.0 energy=-0.007295663168701008 pbc="F F F"
X       10.00000000      10.00000000      10.00000000       0.14092188      -0.71067926      -0.37203531      -0.58022904       0.05542810      -0.35574172       0.12024383       0.00948445      -0.00808272       0.00312584       1.00000000       1.50000000       2.00000000       0.01232801       0.02191483       0.02474149      -0.00729566
X       11.67508468      11.97805297      11.71371003       0.86910490      -0.09332295       0.47789487       0.08697122       0.00474841      -0.01872602       0.26060465       0.00189985      -0.01223474       0.00919790       1.00000000       1.50000000       2.00000000      -0.01232801      -0.02191483      -0.02474149      -0.00729566
2
Properties=species:S:1:pos:R:3:quaternions:R:4:old_torques:R:3:torques:R:3:c_diameter[1]:R:1:c_diameter[2]:R:1:c_diameter[3]:R:1:forces:R:3:energies:R:1 separation_distance=2.834801110275082 old_energy=-0.14389845628016945 distance=2.8348011074404913 gb_cutoff=5.0 gb_epsilon=1.0 gb_sigma=1.0 energy=-0.013803464706467504 pbc="F F F"
X       10.00000000      10.00000000      10.00000000       0.41228241       0.22105305      -0.69778322       0.54245492      -0.01643006       0.16564250       0.04622834       0.00712005       0.00331748      -0.01976034       1.00000000       1.50000000       2.00000000       0.05630822       0.04118718       0.02217646      -0.01380346
X       11.86591694      11.84618477      11.07053869       0.48643529       0.81615609       0.30656797       0.05732386      -0.02473218      -0.18189030      -0.06737276      -0.01027068       0.01558322      -0.00734318       1.00000000       1.50000000       2.00000000      -0.05630822      -0.04118718      -0.02217646      -0.01380346
2
Properties=species:S:1:pos:R:3:quaternions:R:4:old_torques:R:3:torques:R:3:c_diameter[1]:R:1:c_diameter[2]:R:1:c_diameter[3]:R:1:forces:R:3:energies:R:1 separation_distance=2.626425306113034 old_energy=-0.4939157330144067 distance=2.6264253059429117 gb_cutoff=5.0 gb_epsilon=1.0 gb_sigma=1.0 energy=-0.011173102386176763 pbc="F F F"
X       10.00000000      10.00000000      10.00000000       0.32524739      -0.35037582      -0.20115559       0.85497798      -0.01605844       0.16098789      -0.23686006       0.00771032       0.00187984      -0.00693351       1.00000000       1.50000000       2.00000000       0.03327655       0.02059601       0.03992215      -0.01117310
X       11.54158400      11.09842272      11.82074056       0.24234845       0.42530916      -0.01108446      -0.87192688      -0.09700988       0.22856457       0.70450965      -0.00135890      -0.00283524       0.00213227       1.00000000       1.50000000       2.00000000      -0.03327655      -0.02059601      -0.03992215      -0.01117310
2
Properties=species:S:1:pos:R:3:quaternions:R:4:old_torques:R:3:torques:R:3:c_diameter[1]:R:1:c_diameter[2]:R:1:c_diameter[3]:R:1:forces:R:3:energies:R:1 separation_distance=2.674348320349075 old_energy=-0.46066970427682036 distance=2.6743483206236824 gb_cutoff=5.0 gb_epsilon=1.0 gb_sigma=1.0 energy=-0.012500254720993172 pbc="F F F"
X       10.00000000      10.00000000      10.00000000       0.03684287       0.26924717      -0.45367226      -0.84872259      -0.11459420       0.63957477       0.32838978       0.00087418       0.00062776      -0.00377906       1.00000000       1.50000000       2.00000000       0.04975075       0.02879752       0.03056897      -0.01250025
X       11.65210635      11.41241093      11.55813315       0.41787665       0.89109424       0.14239564      -0.10513630       0.17969906       0.64190456      -0.53827796      -0.00256860       0.02638734      -0.01891289       1.00000000       1.50000000       2.00000000      -0.04975075      -0.02879752      -0.03056897      -0.01250025
2
Properties=species:S:1:pos:R:3:quaternions:R:4:old_torques:R:3:torques:R:3:c_diameter[1]:R:1:c_diameter[2]:R:1:c_diameter[3]:R:1:forces:R:3:energies:R:1 separation_distance=3.117610103813841 old_energy=-0.6207360990894291 distance=3.1176101103010163 gb_cutoff=5.0 gb_epsilon=1.0 gb_sigma=1.0 energy=-0.010723344641338652 pbc="F F F"
X       10.00000000      10.00000000      10.00000000       0.01741259      -0.52008388      -0.82125388       0.23399065      -0.43995439       0.42890343       0.18285139      -0.01570206       0.00829947       0.00732866       1.00000000       1.50000000       2.00000000       0.03368357       0.03941696       0.01488676      -0.01072334
X       11.95508360      11.95591428      11.43928463       0.58592004      -0.14975627       0.16641216       0.77883102       0.01940797      -0.00881813      -0.18115708      -0.01191294       0.01107592       0.00385261       1.00000000       1.50000000       2.00000000      -0.03368357      -0.03941696      -0.01488676      -0.01072334
2
Properties=species:S:1:pos:R:3:quaternions:R:4:old_torques:R:3:torques:R:3:c_diameter[1]:R:1:c_diameter[2]:R:1:c_diameter[3]:R:1:forces:R:3:energies:R:1 separation_distance=2.7567450311967607 old_energy=-0.31927905856584743 distance=2.7567450287479796 gb_cutoff=5.0 gb_epsilon=1.0 gb_sigma=1.0 energy=-0.007236268169909752 pbc="F F F"
X       10.00000000      10.00000000      10.00000000       0.01476002      -0.08933559      -0.06502728       0.99376695      -0.18077641       0.65686614       0.36703977      -0.00164323       0.00729737      -0.00631466       1.00000000       1.50000000       2.00000000       0.02445730       0.01503315       0.01813871      -0.00723627
X       11.78280656      11.18340102      11.73804659       0.28855927       0.86299231       0.35093015       0.22096572       0.02297258      -0.12772630       0.21408987      -0.00301971       0.00287275       0.00417306       1.00000000       1.50000000       2.00000000      -0.02445730      -0.01503315      -0.01813871      -0.00723627
2
Properties=species:S:1:pos:R:3:quaternions:R:4:old_torques:R:3:torques:R:3:c_diameter[1]:R:1:c_diameter[2]:R:1:c_diameter[3]:R:1:forces:R:3:energies:R:1 separation_distance=2.726465714407012 old_energy=-0.3521110696309421 distance=2.7264657198099953 gb_cutoff=5.0 gb_epsilon=1.0 gb_sigma=1.0 energy=-0.009854758129836052 pbc="F F F"
X       10.00000000      10.00000000      10.00000000       0.75154226       0.50406805       0.35415934       0.23594661      -1.55224468       8.29789818      -3.23630781      -0.01157890       0.00356954       0.00719208       1.00000000       1.50000000       2.00000000       0.02925503       0.02556388       0.03012306      -0.00985476
X       11.55538111      11.42932254      11.72378711       0.23787819      -0.09591051       0.87641719       0.40756354       3.37805577       5.26493982       4.20624355       0.01056779       0.00000707      -0.00924539       1.00000000       1.50000000       2.00000000      -0.02925503      -0.02556388      -0.03012306      -0.00985476
2
Properties=species:S:1:pos:R:3:quaternions:R:4:old_torques:R:3:torques:R:3:c_diameter[1]:R:1:c_diameter[2]:R:1:c_diameter[3]:R:1:forces:R:3:energies:R:1 separation_distance=2.304892072681064 old_energy=-0.7560060370120186 distance=2.3048920730380567 gb_cutoff=5.0 gb_epsilon=1.0 gb_sigma=1.0 energy=-0.0714713514942395 pbc="F F F"
X       10.00000000      10.00000000      10.00000000       0.53014867      -0.15955872      -0.51990841       0.65052183      -0.01794590       0.60857743      -1.16444772      -0.06114427      -0.07627810       0.04541622       1.00000000       1.50000000       2.00000000       0.14607003       0.23462285       0.40296201      -0.07147135
X       11.14544991      11.03063211      11.71413810       0.32828827      -0.56132450       0.07170894      -0.75630645       1.00097765       6.41007433       3.08447881       0.07427389      -0.13491049       0.07278804       1.00000000       1.50000000       2.00000000      -0.14607003      -0.23462285      -0.40296201      -0.07147135
2
Properties=species:S:1:pos:R:3:quaternions:R:4:old_torques:R:3:torques:R:3:c_diameter[1]:R:1:c_diameter[2]:R:1:c_diameter[3]:R:1:forces:R:3:energies:R:1 separation_distance=2.7892669518500735 old_energy=-0.43008008528581076 distance=2.789266955484427 gb_cutoff=5.0 gb_epsilon=1.0 gb_sigma=1.0 energy=-0.007763066924842614 pbc="F F F"
X       10.00000000      10.00000000      10.00000000       0.22044687      -0.97226713      -0.05656985      -0.05384845       0.31421560       1.12797503      -0.46558085       0.00273973       0.00078393      -0.00902650       1.00000000       1.50000000       2.00000000       0.02350281       0.02549979       0.01264634      -0.00776307
X       11.57082064      11.94221026      11.24110917       0.09711120       0.44469740      -0.88855379      -0.05732184      -0.00063517      -0.02889315       0.33374284      -0.00982589       0.00852048       0.00343470       1.00000000       1.50000000       2.00000000      -0.02350281      -0.02549979      -0.01264634      -0.00776307
2
Properties=species:S:1:pos:R:3:quaternions:R:4:old_torques:R:3:torques:R:3:c_diameter[1]:R:1:c_diameter[2]:R:1:c_diameter[3]:R:1:forces:R:3:energies:R:1 separation_distance=3.070650157443037 old_energy=-0.3445011544704437 distance=3.0706501542870686 gb_cutoff=5.0 gb_epsilon=1.0 gb_sigma=1.0 energy=-0.011955513545414902 pbc="F F F"
X       10.00000000      10.00000000      10.00000000       0.49190500      -0.12820194      -0.07944181      -0.85748629      -0.59641052      -0.64244550      -0.34148384      -0.01993023       0.01998428       0.00360639       1.00000000       1.50000000       2.00000000       0.04044911       0.03652433       0.02886558      -0.01195551
X       11.76175587      11.91248308      11.63325353       0.60937904      -0.61584669      -0.11104024      -0.48688819       0.02020416       0.17874545      -0.09376084       0.01548167      -0.00477473      -0.01661768       1.00000000       1.50000000       2.00000000      -0.04044911      -0.03652433      -0.02886558      -0.01195551
2
Properties=species:S:1:pos:R:3:quaternions:R:4:old_torques:R:3:torques:R:3:c_diameter[1]:R:1:c_diameter[2]:R:1:c_diameter[3]:R:1:forces:R:3:energies:R:1 separation_distance=2.827712604850064 old_energy=-0.6855569238796714 distance=2.8277126007594844 gb_cutoff=5.0 gb_epsilon=1.0 gb_sigma=1.0 energy=-0.005690060977890788 pbc="F F F"
X       10.00000000      10.00000000      10.00000000       0.62435769      -0.75331016      -0.17571993       0.10873727       0.35434396      -0.29537901      -0.35733620       0.00003090       0.00449260      -0.00390652       1.00000000       1.50000000       2.00000000       0.01672611       0.01374714       0.01371395      -0.00569006
X       11.79620692      11.41291110      11.66531723       0.47117889       0.71695252       0.34826678       0.37772979      -0.08979237       0.69369537      -0.28102046      -0.00354766      -0.00127141       0.00496673       1.00000000       1.50000000       2.00000000      -0.01672611      -0.01374714      -0.01371395      -0.00569006
2
Properties=species:S:1:pos:R:3:quaternions:R:4:old_torques:R:3:torques:R:3:c_diameter[1]:R:1:c_diameter[2]:R:1:c_diameter[3]:R:1:forces:R:3:energies:R:1 separation_distance=2.98980856156623 old_energy=-0.5643200436165777 distance=2.9898085643114976 gb_cutoff=5.0 gb_epsilon=1.0 gb_sigma=1.0 energy=-0.005462231657329381 pbc="F F F"
X       10.00000000      10.00000000      10.00000000       0.10773802       0.11974813      -0.40897338      -0.89821694       0.03469409       1.04386151      -0.00035445      -0.00087809       0.00795674      -0.00651049       1.00000000       1.50000000       2.00000000       0.01706137       0.01104001       0.01410501      -0.00546223
X       11.93210780      11.27810110      11.89007203       0.72105470       0.18267461       0.40228503      -0.53373857       0.35705424       0.42009667      -0.44796086      -0.00196070      -0.00296191       0.00603482       1.00000000       1.50000000       2.00000000      -0.01706137      -0.01104001      -0.01410501      -0.00546223
2
Properties=species:S:1:pos:R:3:quaternions:R:4:old_torques:R:3:torques:R:3:c_diameter[1]:R:1:c_diameter[2]:R:1:c_diameter[3]:R:1:forces:R:3:energies:R:1 separation_distance=2.3714390242302557 old_energy=-0.8064710431421312 distance=2.3714390233287057 gb_cutoff=5.0 gb_epsilon=1.0 gb_sigma=1.0 energy=-0.03364835053461447 pbc="F F F"
X       10.00000000      10.00000000      10.00000000       0.25106996      -0.82558493      -0.29301190      -0.41172493      -0.00112307      -0.10432843       0.30135599       0.05075886      -0.00805998      -0.01137940       1.00000000       1.50000000       2.00000000       0.07331207       0.13530588       0.13591973      -0.03364835
X       11.11398136      11.57913270      11.37444843       0.90098065       0.10004930       0.41908891      -0.05087717       0.08236272      -0.23223739       0.68922383      -0.02209452      -0.04258840       0.04633814       1.00000000       1.50000000       2.00000000      -0.07331207      -0.13530588      -0.13591973      -0.03364835
2
Properties=species:S:1:pos:R:3:quaternions:R:4:old_torques:R:3:torques:R:3:c_diameter[1]:R:1:c_diameter[2]:R:1:c_diameter[3]:R:1:forces:R:3:energies:R:1 separation_distance=3.021188777418501 old_energy=-0.32535423481156067 distance=3.021188776406797 gb_cutoff=5.0 gb_epsilon=1.0 gb_sigma=1.0 energy=-0.004477127680450708 pbc="F F F"
X       10.00000000      10.00000000      10.00000000       0.00085583      -0.63245409       0.61176441       0.47512672       0.00326516       0.01185432       0.07232920      -0.00144303      -0.00155531       0.00460902       1.00000000       1.50000000       2.00000000       0.01190628       0.01243218       0.00899416      -0.00447713
X       11.98813143      11.94620836      11.17778948       0.55204215       0.26969912       0.66445918      -0.42544782       0.10662406       1.27764932      -0.09817295       0.00430506      -0.00230317      -0.00306433       1.00000000       1.50000000       2.00000000      -0.01190628      -0.01243218      -0.00899416      -0.00447713
2
Properties=species:S:1:pos:R:3:quaternions:R:4:old_torques:R:3:torques:R:3:c_diameter[1]:R:1:c_diameter[2]:R:1:c_diameter[3]:R:1:forces:R:3:energies:R:1 separation_distance=2.689427320948699 old_energy=-0.43939422062036576 distance=2.6894273223913157 gb_cutoff=5.0 gb_epsilon=1.0 gb_sigma=1.0 energy=-0.018792081514341193 pbc="F F F"
X       10.00000000      10.00000000      10.00000000       0.14832419      -0.36015020       0.01911907       0.92082910       0.33454352      -1.25794677      -2.79027044       0.01387157      -0.00265614      -0.01735239       1.00000000       1.50000000       2.00000000       0.05785859       0.07081905       0.05119393      -0.01879208
X       11.04658712      11.93694918      11.54463672       0.88336252      -0.31366918       0.06022075       0.34300987       0.11293437       0.06725011       0.75104915      -0.02410123       0.03844773      -0.02059845       1.00000000       1.50000000       2.00000000      -0.05785859      -0.07081905      -0.05119393      -0.01879208
