2
Properties=species:S:1:pos:R:3:quaternions:R:4:old_torques:R:3:torques:R:3:c_diameter[1]:R:1:c_diameter[2]:R:1:c_diameter[3]:R:1:forces:R:3:energies:R:1 separation_distance=3.2512464657055102 old_energy=-0.2885023002858757 distance=3.2512464664247127 gb_cutoff=5.0 gb_epsilon=1.0 gb_sigma=1.0 energy=-0.0030082932602971454 pbc="F F F"
X       10.00000000      10.00000000      10.00000000       0.46802272      -0.66963551      -0.57297643      -0.06512314      -0.39359456       0.30020815       0.24757135       0.00002039      -0.00051030       0.00152086       1.00000000       1.50000000       2.00000000       0.00684392       0.00776837       0.00664626      -0.00300829
X       11.75508575      11.99903434      11.86926170       0.58951259      -0.50841202       0.03338041       0.62679971      -0.27469095      -0.57009725      -0.28160377      -0.00125540       0.00163862      -0.00156794       1.00000000       1.50000000       2.00000000      -0.00684392      -0.00776837      -0.00664626      -0.00300829
2
Properties=species:S:1:pos:R:3:quaternions:R:4:old_torques:R:3:torques:R:3:c_diameter[1]:R:1:c_diameter[2]:R:1:c_diameter[3]:R:1:forces:R:3:energies:R:1 separation_distance=3.1430930279122813 old_energy=-0.543591079604109 distance=3.143093030674256 gb_cutoff=5.0 gb_epsilon=1.0 gb_sigma=1.0 energy=-0.0039060330665815 pbc="F F F"
X       10.00000000      10.00000000      10.00000000       0.28965749       0.09426364       0.83621905       0.45601601       0.21659561       0.09801896      -0.18150707       0.00433579      -0.00041262      -0.00223314       1.00000000       1.50000000       2.00000000       0.00926345       0.00868866       0.01069795      -0.00390603
X       11.84616180      11.71478376      11.87889251       0.22123935      -0.61542875       0.67763149       0.33632746       0.01168486      -0.49041010       0.01549974      -0.00231619      -0.00193250       0.00238901       1.00000000       1.50000000       2.00000000      -0.00926345      -0.00868866      -0.01069795      -0.00390603
2
Properties=species:S:1:pos:R:3:quaternions:R:4:old_torques:R:3:torques:R:3:c_diameter[1]:R:1:c_diameter[2]:R:1:c_diameter[3]:R:1:forces:R:3:energies:R:1 separation_distance=2.6356379424739456 old_energy=-0.38488152561902467 distance=2.6356379425310723 gb_cutoff=5.0 gb_epsilon=1.0 gb_sigma=1.0 energy=-0.011351377222947238 pbc="F F F"
X       10.00000000      10.00000000      10.00000000       0.10032036       0.88738807       0.36361803       0.26506635       0.00160239      -0.20687187      -0.16991970      -0.00699698       0.00292018       0.00501955       1.00000000       1.50000000       2.00000000       0.04043679       0.02730295       0.03109354      -0.01135138
X       11.74978230      11.46401480      11.31966281       0.42906373      -0.39006668       0.46893307       0.66622374      -0.14640830      -0.49998112      -0.48142855       0.01648769      -0.00396419      -0.01644539       1.00000000       1.50000000       2.00000000      -0.04043679      -0.02730295      -0.03109354      -0.01135138
2
Properties=species:S:1:pos:R:3:quaternions:R:4:old_torques:R:3:torques:R:3:c_diameter[1]:R:1:c_diameter[2]:R:1:c_diameter[3]:R:1:forces:R:3:energies:R:1 separation_distance=2.848686490279649 old_energy=-0.5335739274020029 distance=2.8486864906741216 gb_cutoff=5.0 gb_epsilon=1.0 gb_sigma=1.0 energy=-0.029274991868630976 pbc="F F F"
X       10.00000000      10.00000000      10.00000000       0.66105428      -0.18623337       0.47088553       0.55370677       0.53410051       0.41534753       0.96981273       0.00238754       0.01969889      -0.03472548       1.00000000       1.50000000       2.00000000       0.13455367       0.09572937       0.06161211      -0.02927499
X       11.65708873      11.98881776      11.18898090       0.85879492      -0.50649846       0.03407855      -0.06905970       0.61292109      -1.84995615      -1.21868271       0.00632731       0.03818612      -0.07424518       1.00000000       1.50000000       2.00000000      -0.13455367      -0.09572937      -0.06161211      -0.02927499
2
Properties=species:S:1:pos:R:3:quaternions:R:4:old_torques:R:3:torques:R:3:c_diameter[1]:R:1:c_diameter[2]:R:1:c_diameter[3]:R:1:forces:R:3:energies:R:1 separation_distance=2.9238594596913483 old_energy=-0.4386052541769153 distance=2.923859461359522 gb_cutoff=5.0 gb_epsilon=1.0 gb_sigma=1.0 energy=-0.014815904123468475 pbc="F F F"
X       10.00000000      10.00000000      10.00000000       0.67003267      -0.44111214       0.50799913       0.31370875       3.29457159       0.67899149       0.59748169       0.03567814      -0.02010841       0.01159744       1.00000000       1.50000000       2.00000000       0.00982074       0.04663056       0.06483401      -0.01481590
X       11.00526552      11.88974136      11.99180144       0.34646831       0.06656416      -0.93507602      -0.03408454       0.92502283       2.57198106       2.52543390      -0.00603745      -0.02550603       0.01672000       1.00000000       1.50000000       2.00000000      -0.00982074      -0.04663056      -0.06483401      -0.01481590
2
Properties=species:S:1:pos:R:3:quaternions:R:4:old_torques:R:3:torques:R:3:c_diameter[1]:R:1:c_diameter[2]:R:1:c_diameter[3]:R:1:forces:R:3:energies:R:1 separation_distance=2.687728404015648 old_energy=-0.5242845445425607 distance=2.6877284048242487 gb_cutoff=5.0 gb_epsilon=1.0 gb_sigma=1.0 energy=-0.024414953349837204 pbc="F F F"
X       10.00000000      10.00000000      10.00000000       0.67314068      -0.44725046      -0.07503375       0.58413919       1.13669328       2.29941107       2.26681195      -0.02379778       0.01592189       0.00224333       1.00000000       1.50000000       2.00000000       0.09463414       0.07015841       0.07467426      -0.02441495
X       11.58089696      11.42881987      11.63802398       0.26857434       0.46299922      -0.70803685       0.46063365      -0.54581122       1.18263905      -2.44446208       0.01557269       0.02103878      -0.02654525       1.00000000       1.50000000       2.00000000      -0.09463414      -0.07015841      -0.07467426      -0.02441495
2
Properties=species:S:1:pos:R:3:quaternions:R:4:old_torques:R:3:torques:R:3:c_diameter[1]:R:1:c_diameter[2]:R:1:c_diameter[3]:R:1:forces:R:3:energies:R:1 separation_distance=2.869914899584302 old_energy=-0.17442227276861105 distance=2.8699148985679277 gb_cutoff=5.0 gb_epsilon=1.0 gb_sigma=1.0 energy=-0.016696883162474155 pbc="F F F"
X       10.00000000      10.00000000      10.00000000       0.56409607      -0.22875822       0.14648623       0.77974809       0.00065304       0.02679253      -0.17872410      -0.00188052       0.01252907      -0.01392863       1.00000000       1.50000000       2.00000000       0.06890123       0.03813875       0.04279188      -0.01669688
X       11.88716075      11.59556154      11.45918443       0.49536144      -0.28448071       0.28546631       0.76954321       0.00362368      -0.01059945      -0.15639971       0.01450612       0.00725537      -0.02403356       1.00000000       1.50000000       2.00000000      -0.06890123      -0.03813875      -0.04279188      -0.01669688
2
Properties=species:S:1:pos:R:3:quaternions:R:4:old_torques:R:3:torques:R:3:c_diameter[1]:R:1:c_diameter[2]:R:1:c_diameter[3]:R:1:forces:R:3:energies:R:1 separation_distance=2.7523734529804873 old_energy=-0.7597639013851464 distance=2.7523734528972494 gb_cutoff=5.0 gb_epsilon=1.0 gb_sigma=1.0 energy=-0.010866818536516425 pbc="F F F"
X       10.00000000      10.00000000      10.00000000       0.41395190      -0.64849738       0.17258398       0.61506890      -0.07552153       0.20866130       0.01887307       0.01085257       0.00143747      -0.00577465       1.00000000       1.50000000       2.00000000       0.02386364       0.03698558       0.03228279      -0.01086682
X       11.29939257      11.84811305      11.57213763       0.42656311       0.61794773       0.45107991       0.48240172       0.04060856       0.99251896      -0.03504162      -0.00933675      -0.00586856       0.00973073       1.00000000       1.50000000       2.00000000      -0.02386364      -0.03698558      -0.03228279      -0.01086682
2
Properties=species:S:1:pos:R:3:quaternions:R:4:old_torques:R:3:torques:R:3:c_diameter[1]:R:1:c_diameter[2]:R:1:c_diameter[3]:R:1:forces:R:3:energies:R:1 separation_distance=3.1956983772688417 old_energy=-0.12535176278389948 distance=3.1956983782005457 gb_cutoff=5.0 gb_epsilon=1.0 gb_sigma=1.0 energy=-0.003998165773188555 pbc="F F F"
X       10.00000000      10.00000000      10.00000000       0.44060478       0.57872043       0.23755679      -0.64382984       0.10103952       0.07673997      -0.13223136       0.00633485      -0.00523733       0.00122600       1.00000000       1.50000000       2.00000000       0.00824203       0.01106928       0.01032852      -0.00399817
X       11.74062790      11.97468401      11.81199495       0.07373228       0.48322884      -0.83248194      -0.26082035      -0.00280250      -0.04525194      -0.02985457      -0.00599677       0.00219375       0.00176608       1.00000000       1.50000000       2.00000000      -0.00824203      -0.01106928      -0.01032852      -0.00399817
2
Properties=species:S:1:pos:R:3:quaternions:R:4:old_torques:R:3:torques:R:3:c_diameter[1]:R:1:c_diameter[2]:R:1:c_diameter[3]:R:1:forces:R:3:energies:R:1 separation_distance=2.4656336159275534 old_energy=-0.7585289223060651 distance=2.465633614635784 gb_cutoff=5.0 gb_epsilon=1.0 gb_sigma=1.0 energy=-0.15058791316848363 pbc="F F F"
X       10.00000000      10.00000000      10.00000000       0.83853359      -0.21347062       0.03490535      -0.50007332       0.18128062      -1.05317099       0.31965749      -0.36250042       0.03889804       0.14406460       1.00000000       1.50000000       2.00000000       0.39978522       0.83429021       0.62601408      -0.15058791
X       11.02355710      11.36458924      11.78033036       0.36797710       0.54451621      -0.75291475       0.03484715      -0.03399054       0.44101574       0.34375429      -0.26855969       0.03209057       0.16433646       1.00000000       1.50000000       2.00000000      -0.39978522      -0.83429021      -0.62601408      -0.15058791
2
Properties=species:S:1:pos:R:3:quaternions:R:4:old_torques:R:3:torques:R:3:c_diameter[1]:R:1:c_diameter[2]:R:1:c_diameter[3]:R:1:forces:R:3:energies:R:1 separation_distance=3.041238771572378 old_energy=-0.30340442272401086 distance=3.041238771179271 gb_cutoff=5.0 gb_epsilon=1.0 gb_sigma=1.0 energy=-0.005907745992049285 pbc="F F F"
X       10.00000000      10.00000000      10.00000000       0.14997457       0.45647367       0.87516749       0.05675638      -0.42867704       0.59730695       0.38200658      -0.00340401       0.00463242      -0.00070361       1.00000000       1.50000000       2.00000000       0.01465926       0.01543263       0.01641884      -0.00590775
X       11.69936206      11.77899466      11.78787020       0.13151888      -0.78910516      -0.36030217      -0.47978973      -0.03597763      -0.28881341      -0.11276873       0.00502151      -0.00632512       0.00085049       1.00000000       1.50000000       2.00000000      -0.01465926      -0.01543263      -0.01641884      -0.00590775
2
Properties=species:S:1:pos:R:3:quaternions:R:4:old_torques:R:3:torques:R:3:c_diameter[1]:R:1:c_diameter[2]:R:1:c_diameter[3]:R:1:forces:R:3:energies:R:1 separation_distance=2.921334148277057 old_energy=-0.7142748222447218 distance=2.921334148321637 gb_cutoff=5.0 gb_epsilon=1.0 gb_sigma=1.0 energy=-0.012291085657054904 pbc="F F F"
X       10.00000000      10.00000000      10.00000000       0.49069442       0.33791230      -0.75085258       0.28505204      -0.01336274       0.05011878      -0.10749345       0.02412728      -0.01660438       0.00967744       1.00000000       1.50000000       2.00000000       0.01361637       0.04123008       0.04783189      -0.01229109
X       11.20872129      11.93894496      11.82035120       0.29009730       0.53815081       0.38219261       0.69294016       0.05735114       1.62452480      -0.03734451      -0.00643709      -0.01642448       0.01375684       1.00000000       1.50000000       2.00000000      -0.01361637      -0.04123008      -0.04783189      -0.01229109
2
Properties=species:S:1:pos:R:3:quaternions:R:4:old_torques:R:3:torques:R:3:c_diameter[1]:R:1:c_diameter[2]:R:1:c_diameter[3]:R:1:forces:R:3:energies:R:1 separation_distance=2.7189281422969676 old_energy=-0.660466057521357 distance=2.718928144490603 gb_cutoff=5.0 gb_epsilon=1.0 gb_sigma=1.0 energy=-0.016716958460155817 pbc="F F F"
X       10.00000000      10.00000000      10.00000000       0.45581810       0.30200428      -0.83471515      -0.06537504       0.32121438       1.10637721      -0.45036311      -0.02814527       0.00383219       0.01947507       1.00000000       1.50000000       2.00000000       0.04272126       0.07414969       0.03327028      -0.01671696
X       11.59939733      11.88388504      11.13378816       0.59759035       0.08600801      -0.20526441       0.77029534       0.00832321       1.26384403       0.00530495       0.00675260      -0.00860772       0.01863780       1.00000000       1.50000000       2.00000000      -0.04272126      -0.07414969      -0.03327028      -0.01671696
2
Properties=species:S:1:pos:R:3:quaternions:R:4:old_torques:R:3:torques:R:3:c_diameter[1]:R:1:c_diameter[2]:R:1:c_diameter[3]:R:1:forces:R:3:energies:R:1 separation_distance=2.764188535522863 old_energy=-0.6448423028667961 distance=2.7641885341412515 gb_cutoff=5.0 gb_epsilon=1.0 gb_sigma=1.0 energy=-0.022265652148328558 pbc="F F F"
X       10.00000000      10.00000000      10.00000000       0.73737562      -0.23157791       0.47653903       0.41899810      -0.32788052      -0.08707659      -0.20448369       0.03037170      -0.01275829      -0.01710962       1.00000000       1.50000000       2.00000000       0.07792619       0.06351673       0.07821885      -0.02226565
X       11.54396341      11.81263262      11.40402216       0.18727469      -0.41606920       0.29250267       0.84039086       0.00487337       0.17785834       0.12973255       0.02223144       0.00140135      -0.02607443       1.00000000       1.50000000       2.00000000      -0.07792619      -0.06351673      -0.07821885      -0.02226565
2
Properties=species:S:1:pos:R:3:quaternions:R:4:old_torques:R:3:torques:R:3:c_diameter[1]:R:1:c_diameter[2]:R:1:c_diameter[3]:R:1:forces:R:3:energies:R:1 separation_distance=2.920527586469453 old_energy=-0.5487064075148038 distance=2.9205275893434037 gb_cutoff=5.0 gb_epsilon=1.0 gb_sigma=1.0 energy=-0.005589939506305175 pbc="F F F"
X       10.00000000      10.00000000      10.00000000       0.31269935       0.33894323      -0.32411354      -0.82600667      -0.42310265       0.65017746       0.44499320      -0.00246666       0.00200541       0.00057915       1.00000000       1.50000000       2.00000000       0.01388171       0.01443975       0.01557852      -0.00558994
X       11.41596303      11.70773328      11.89952024       0.09755980       0.07490660      -0.49345912       0.86102798      -0.11483070       0.28962787       0.46498146       0.00164201       0.00230457      -0.00383926       1.00000000       1.50000000       2.00000000      -0.01388171      -0.01443975      -0.01557852      -0.00558994
2
Properties=species:S:1:pos:R:3:quaternions:R:4:old_torques:R:3:torques:R:3:c_diameter[1]:R:1:c_diameter[2]:R:1:c_diameter[3]:R:1:forces:R:3:energies:R:1 separation_distance=3.172906856770517 old_energy=-0.5600462164912874 distance=3.172906854987513 gb_cutoff=5.0 gb_epsilon=1.0 gb_sigma=1.0 energy=-0.006602633907904522 pbc="F F F"
X       10.00000000      10.00000000      10.00000000       0.27745203       0.07754175      -0.78467526      -0.54890107      -0.13899421      -1.31133103       0.79262771      -0.00210774       0.00533185      -0.00441145       1.00000000       1.50000000       2.00000000       0.01788704       0.01981951       0.01577358      -0.00660263
X       11.82797782      11.72449217      11.93699813       0.23314687      -0.62837834      -0.65053387       0.35719585       1.28701214       2.26603502       0.71575991      -0.00908121       0.00048156       0.00979502       1.00000000       1.50000000       2.00000000      -0.01788704      -0.01981951      -0.01577358      -0.00660263
2
Properties=species:S:1:pos:R:3:quaternions:R:4:old_torques:R:3:torques:R:3:c_diameter[1]:R:1:c_diameter[2]:R:1:c_diameter[3]:R:1:forces:R:3:energies:R:1 separation_distance=2.851110365044353 old_energy=-0.7255750197098249 distance=2.8511103625591616 gb_cutoff=5.0 gb_epsilon=1.0 gb_sigma=1.0 energy=-0.008722076080251153 pbc="F F F"
X       10.00000000      10.00000000      10.00000000       0.63499841       0.27671580       0.67511905      -0.25381026      -0.06423221      -0.40947853       0.03627132       0.00390741      -0.00865059       0.00269909       1.00000000       1.50000000       2.00000000       0.02784003       0.01858090       0.02668940      -0.00872208
X       11.73994341      11.36582536      11.79887418       0.20089525      -0.13335733       0.00164526       0.97049174      -0.14787535       0.02901804       0.10297384      -0.00087905       0.01229325      -0.00839399       1.00000000       1.50000000       2.00000000      -0.02784003      -0.01858090      -0.02668940      -0.00872208
2
Properties=species:S:1:pos:R:3:quaternions:R:4:old_torques:R:3:torques:R:3:c_diameter[1]:R:1:c_diameter[2]:R:1:c_diameter[3]:R:1:forces:R:3:energies:R:1 separation_distance=2.835181718381794 old_energy=-0.18392799158947867 distance=2.835181717856061 gb_cutoff=5.0 gb_epsilon=1.0 gb_sigma=1.0 energy=-0.01747138445863734 pbc="F F F"
X       10.00000000      10.00000000      10.00000000       0.25573965       0.43274934      -0.85643146      -0.11768767       0.03250982      -0.17589978       0.11723272      -0.04027861       0.01876989       0.01859125       1.00000000       1.50000000       2.00000000       0.05608305       0.06507603       0.04579943      -0.01747138
X       11.97882526      11.35698284      11.51033226       0.51314281      -0.29216029      -0.53612383       0.60323964      -0.07037925      -0.21856278      -0.19563701       0.00414122      -0.02469492       0.03407910       1.00000000       1.50000000       2.00000000      -0.05608305      -0.06507603      -0.04579943      -0.01747138
2
Properties=species:S:1:pos:R:3:quaternions:R:4:old_torques:R:3:torques:R:3:c_diameter[1]:R:1:c_diameter[2]:R:1:c_diameter[3]:R:1:forces:R:3:energies:R:1 separation_distance=3.1304705300086098 old_energy=-0.07738268896675644 distance=3.1304705300004514 gb_cutoff=5.0 gb_epsilon=1.0 gb_sigma=1.0 energy=-0.00588392424043749 pbc="F F F"
X       10.00000000      10.00000000      10.00000000       0.80098666       0.06557738       0.53552635      -0.25948313      -0.00940308       0.07628870       0.05040737      -0.00160080      -0.00903693       0.00628769       1.00000000       1.50000000       2.00000000       0.01138891       0.01479617       0.01989386      -0.00588392
X       11.73166127      11.90819770      11.77763228       0.47758041      -0.61940629      -0.30339598      -0.54424597       0.01503923      -0.08699002       0.06015961       0.01326007      -0.00516721      -0.00239803       1.00000000       1.50000000       2.00000000      -0.01138891      -0.01479617      -0.01989386      -0.00588392
2
Properties=species:S:1:pos:R:3:quaternions:R:4:old_torques:R:3:torques:R:3:c_diameter[1]:R:1:c_diameter[2]:R:1:c_diameter[3]:R:1:forces:R:3:energies:R:1 separation_distance=2.875007729211833 old_energy=-0.5527652507517227 distance=2.8750077322418752 gb_cutoff=5.0 gb_epsilon=1.0 gb_sigma=1.0 energy=-0.014797592549611495 pbc="F F F"
X       10.00000000      10.00000000      10.00000000       0.82118990       0.13065846      -0.38193007       0.40336701       0.47419021       1.18992346      -0.56307038       0.01595422      -0.01716110       0.00217316       1.00000000       1.50000000       2.00000000       0.04770727       0.05247717       0.03562964      -0.01479759
X       11.80624746      11.98988468      11.02151776       0.48150056       0.47384994      -0.71895114       0.16350139       0.00606025       0.68796734      -0.06486303       0.00133830       0.00153897      -0.00231837       1.00000000       1.50000000       2.00000000      -0.04770727      -0.05247717      -0.03562964      -0.01479759
2
Properties=species:S:1:pos:R:3:quaternions:R:4:old_torques:R:3:torques:R:3:c_diameter[1]:R:1:c_diameter[2]:R:1:c_diameter[3]:R:1:forces:R:3:energies:R:1 separation_distance=3.008759950124493 old_energy=-0.30365889685727154 distance=3.008759943897084 gb_cutoff=5.0 gb_epsilon=1.0 gb_sigma=1.0 energy=-0.006043516430114601 pbc="F F F"
X       10.00000000      10.00000000      10.00000000       0.34170204       0.93534314      -0.06928822       0.05976671       0.12497892       0.25168948      -0.42407201       0.00055450       0.00866885      -0.00977410       1.00000000       1.50000000       2.00000000       0.01874701       0.01421663       0.01491797      -0.00604352
X       11.90000369      11.53031448      11.76089749       0.36761626       0.43391013      -0.39932846      -0.71910852      -0.18535513       0.29544053       0.42140162      -0.00275934      -0.00400147       0.00809691       1.00000000       1.50000000       2.00000000      -0.01874701      -0.01421663      -0.01491797      -0.00604352
2
Properties=species:S:1:pos:R:3:quaternions:R:4:old_torques:R:3:torques:R:3:c_diameter[1]:R:1:c_diameter[2]:R:1:c_diameter[3]:R:1:forces:R:3:energies:R:1 separation_distance=2.945713152885051 old_energy=-0.6016434995688097 distance=2.9457131536632164 gb_cutoff=5.0 gb_epsilon=1.0 gb_sigma=1.0 energy=-0.012729987768089968 pbc="F F F"
X       10.00000000      10.00000000      10.00000000       0.39245191      -0.82950184       0.27711540      -0.28480739       0.21901964       0.78255467      -0.26539418       0.00548267      -0.00918665       0.00145949       1.00000000       1.50000000       2.00000000       0.02923221       0.04505800       0.03906580      -0.01272999
X       11.61180004      11.85501700      11.62426554       0.76028847       0.18323940       0.55410051       0.28523218      -0.10494117       0.19319400       0.52423718      -0.00620109      -0.00629874       0.01693874       1.00000000       1.50000000       2.00000000      -0.02923221      -0.04505800      -0.03906580      -0.01272999
2
Properties=species:S:1:pos:R:3:quaternions:R:4:old_torques:R:3:torques:R:3:c_diameter[1]:R:1:c_diameter[2]:R:1:c_diameter[3]:R:1:forces:R:3:energies:R:1 separation_distance=2.7587629302978462 old_energy=-0.6992313080364102 distance=2.758762932855537 gb_cutoff=5.0 gb_epsilon=1.0 gb_sigma=1.0 energy=-0.021670535753364552 pbc="F F F"
X       10.00000000      10.00000000      10.00000000       0.05042797       0.94185773       0.32695203      -0.05885076       0.13230907      -0.46077016       0.02710830      -0.04105166       0.04186331      -0.00575560       1.00000000       1.50000000       2.00000000       0.07838489       0.08370463       0.05409439      -0.02167054
X       11.24178627      11.58655741      11.88456238       0.19215854       0.59465739      -0.72539919       0.28853717       0.06116294      -0.01198983      -0.09477261      -0.03087108       0.03868424      -0.01466327       1.00000000       1.50000000       2.00000000      -0.07838489      -0.08370463      -0.05409439      -0.02167054
2
Properties=species:S:1:pos:R:3:quaternions:R:4:old_torques:R:3:torques:R:3:c_diameter[1]:R:1:c_diameter[2]:R:1:c_diameter[3]:R:1:forces:R:3:energies:R:1 separation_distance=3.215506332794478 old_energy=-0.38886137693534983 distance=3.2155063330263123 gb_cutoff=5.0 gb_epsilon=1.0 gb_sigma=1.0 energy=-0.0038287496651099886 pbc="F F F"
X       10.00000000      10.00000000      10.00000000       0.19864118      -0.05961680      -0.73177803      -0.64922140      -1.66570277      -4.59063597       2.35491290       0.00046550       0.00350671      -0.00348603       1.00000000       1.50000000       2.00000000       0.01083165       0.00868243       0.00830346      -0.00382875
X       11.87049346      11.71606043      11.97379629       0.59671804      -0.71280110      -0.20370781       0.30715681       3.22767367      -0.19723891      -0.24437160      -0.00335362       0.00234120       0.00113869       1.00000000       1.50000000       2.00000000      -0.01083165      -0.00868243      -0.00830346      -0.00382875
2
Properties=species:S:1:pos:R:3:quaternions:R:4:old_torques:R:3:torques:R:3:c_diameter[1]:R:1:c_diameter[2]:R:1:c_diameter[3]:R:1:forces:R:3:energies:R:1 separation_distance=2.7492475179686875 old_energy=-0.5781399632101957 distance=2.7492475172417805 gb_cutoff=5.0 gb_epsilon=1.0 gb_sigma=1.0 energy=-0.010353153509705415 pbc="F F F"
X       10.00000000      10.00000000      10.00000000       0.02540243       0.58610868      -0.01010738      -0.80977106      -0.26565265       1.29245307      -1.56285342       0.01060804      -0.00850388      -0.00056603       1.00000000       1.50000000       2.00000000       0.02102194       0.03394821       0.03350972      -0.01035315
X       11.13413640      11.92162305      11.60607017       0.25823219      -0.00715886      -0.84789151      -0.46297395      -0.61347944      -0.88743925       1.73636099      -0.00073821       0.00426201      -0.00132831       1.00000000       1.50000000       2.00000000      -0.02102194      -0.03394821      -0.03350972      -0.01035315
2
Properties=species:S:1:pos:R:3:quaternions:R:4:old_torques:R:3:torques:R:3:c_diameter[1]:R:1:c_diameter[2]:R:1:c_diameter[3]:R:1:forces:R:3:energies:R:1 separation_distance=3.1461503389874004 old_energy=-0.07239761760393626 distance=3.1461503389827605 gb_cutoff=5.0 gb_epsilon=1.0 gb_sigma=1.0 energy=-0.0024312110957822684 pbc="F F F"
X       10.00000000      10.00000000      10.00000000       0.27148919       0.87341347       0.08582095       0.39506619      -0.01763058      -0.08745392      -0.04671602       0.00039703      -0.00013720      -0.00070758       1.00000000       1.50000000       2.00000000       0.00565672       0.00513003       0.00547229      -0.00243121
X       11.79416624      11.75303417      11.89897358       0.15328607       0.32264671      -0.59145490      -0.72289943       0.00268711       0.06528090      -0.02093385      -0.00054571       0.00106095      -0.00000471       1.00000000       1.50000000       2.00000000      -0.00565672      -0.00513003      -0.00547229      -0.00243121
2
Properties=species:S:1:pos:R:3:quaternions:R:4:old_torques:R:3:torques:R:3:c_diameter[1]:R:1:c_diameter[2]:R:1:c_diameter[3]:R:1:forces:R:3:energies:R:1 separation_distance=2.5067352987894282 old_energy=-0.5233724576017134 distance=2.5067352995442542 gb_cutoff=5.0 gb_epsilon=1.0 gb_sigma=1.0 energy=-0.029455696507933678 pbc="F F F"
X       10.00000000      10.00000000      10.00000000       0.22112361      -0.18391541       0.19469221       0.93774966      -0.05537622       0.52231131       0.16310219       0.01319413       0.03510550      -0.05193381       1.00000000       1.50000000       2.00000000       0.13539974       0.07776622       0.08661245      -0.02945570
X       11.49018591      11.50028989      11.34617906       0.69531518       0.63147771       0.23778725      -0.24744680      -0.01931327       0.02687130      -0.46563147       0.01206239       0.01809814      -0.03531892       1.00000000       1.50000000       2.00000000      -0.13539974      -0.07776622      -0.08661245      -0.02945570
2
Properties=species:S:1:pos:R:3:quaternions:R:4:old_torques:R:3:torques:R:3:c_diameter[1]:R:1:c_diameter[2]:R:1:c_diameter[3]:R:1:forces:R:3:energies:R:1 separation_distance=2.977558074683782 old_energy=-0.4752703241928472 distance=2.9775580739219545 gb_cutoff=5.0 gb_epsilon=1.0 gb_sigma=1.0 energy=-0.011927161627003014 pbc="F F F"
X       10.00000000      10.00000000      10.00000000       0.31611489      -0.38888896      -0.42509939       0.75374218      -0.08894400      -0.75657178      -0.10604458       0.00961737      -0.01300951      -0.00848952       1.00000000       1.50000000       2.00000000       0.04132232       0.02073425       0.03942768      -0.01192716
X       11.92503788      11.13934783      11.96518899       0.79839400      -0.20009082       0.03776790       0.56666063       0.59735505       0.16920300      -0.19681614      -0.00544226       0.01831591       0.00132324       1.00000000       1.50000000       2.00000000      -0.04132232      -0.02073425      -0.03942768      -0.01192716
2
Properties=species:S:1:pos:R:3:quaternions:R:4:old_torques:R:3:torques:R:3:c_diameter[1]:R:1:c_diameter[2]:R:1:c_diameter[3]:R:1:forces:R:3:energies:R:1 separation_distance=2.6207319606620407 old_energy=-0.7611672247028042 distance=2.620731956375866 gb_cutoff=5.0 gb_epsilon=1.0 gb_sigma=1.0 energy=-0.01209650075751968 pbc="F F F"
X       10.00000000      10.00000000      10.00000000       0.04228135       0.05194627      -0.94127676      -0.33092587      -0.02142210      -0.01403803       0.01828637       0.00004091       0.00842776      -0.01221392       1.00000000       1.50000000       2.00000000       0.04471938       0.03724704       0.02047090      -0.01209650
X       11.55136916      11.77772678      11.14069155       0.16469339       0.03523908      -0.89432200      -0.41451472       0.10971067      -0.11077938      -0.01922344      -0.00613662       0.01082532      -0.00950100       1.00000000       1.50000000       2.00000000      -0.04471938      -0.03724704      -0.02047090      -0.01209650
2
Properties=species:S:1:pos:R:3:quaternions:R:4:old_torques:R:3:torques:R:3:c_diameter[1]:R:1:c_diameter[2]:R:1:c_diameter[3]:R:1:forces:R:3:energies:R:1 separation_distance=2.408612882824976 old_energy=-0.8883103977661744 distance=2.408612877085294 gb_cutoff=5.0 gb_epsilon=1.0 gb_sigma=1.0 energy=-0.033491074212319984 pbc="F F F"
X       10.00000000      10.00000000      10.00000000       0.88773763      -0.02739271       0.28360227      -0.36158166       0.02029483      -0.07369402       0.07742861      -0.06524883      -0.06808825       0.05916518       1.00000000       1.50000000       2.00000000       0.03517704       0.12387229       0.16249376      -0.03349107
X       11.04871239      11.15162918      11.83721761       0.53674212       0.17581465      -0.47788576       0.67277211      -0.10086493      -0.17437636      -0.00569544       0.02480103      -0.03769308       0.03023032       1.00000000       1.50000000       2.00000000      -0.03517704      -0.12387229      -0.16249376      -0.03349107
2
Properties=species:S:1:pos:R:3:quaternions:R:4:old_torques:R:3:torques:R:3:c_diameter[1]:R:1:c_diameter[2]:R:1:c_diameter[3]:R:1:forces:R:3:energies:R:1 separation_distance=2.5051167548521858 old_energy=-0.8181153602405221 distance=2.5051167566549553 gb_cutoff=5.0 gb_epsilon=1.0 gb_sigma=1.0 energy=-0.018219808901778923 pbc="F F F"
X       10.00000000      10.00000000      10.00000000       0.43064867       0.48653618      -0.71040610      -0.27045785      -0.09098099       0.44717289       0.38947013      -0.03579394       0.00915893       0.03509475       1.00000000       1.50000000       2.00000000       0.04801114       0.08238566       0.03311186      -0.01821981
X       11.36670612      11.68830616      11.24793696       0.51108579       0.67636596       0.41501956       0.33027135       0.03991849      -0.67751175      -0.00491985      -0.01111520       0.00550176      -0.00355526       1.00000000       1.50000000       2.00000000      -0.04801114      -0.08238566      -0.03311186      -0.01821981
2
Properties=species:S:1:pos:R:3:quaternions:R:4:old_torques:R:3:torques:R:3:c_diameter[1]:R:1:c_diameter[2]:R:1:c_diameter[3]:R:1:forces:R:3:energies:R:1 separation_distance=2.8918138675026057 old_energy=-0.5075695547387683 distance=2.8918138634768797 gb_cutoff=5.0 gb_epsilon=1.0 gb_sigma=1.0 energy=-0.011984658073940101 pbc="F F F"
X       10.00000000      10.00000000      10.00000000       0.60479099       0.23803778       0.75023869      -0.12127567      -0.39319152       1.29443659       0.49157684       0.00704039      -0.01671108       0.00072939       1.00000000       1.50000000       2.00000000       0.03903297       0.01969872       0.04440495      -0.01198466
X       11.79560247      11.43781749      11.75244973       0.77656161      -0.43885989      -0.10139566      -0.44053716       0.13108122      -0.48183998       0.55535463       0.02228481       0.00538077      -0.02148062       1.00000000       1.50000000       2.00000000      -0.03903297      -0.01969872      -0.04440495      -0.01198466
2
Properties=species:S:1:pos:R:3:quaternions:R:4:old_torques:R:3:torques:R:3:c_diameter[1]:R:1:c_diameter[2]:R:1:c_diameter[3]:R:1:forces:R:3:energies:R:1 separation_distance=3.0245528368034558 old_energy=-0.45639219921979407 distance=3.0245528432695945 gb_cutoff=5.0 gb_epsilon=1.0 gb_sigma=1.0 energy=-0.010074988422776368 pbc="F F F"
X       10.00000000      10.00000000      10.00000000       0.76300526      -0.19209417      -0.60622576       0.11581508       0.54989568       0.71343083      -0.41845689       0.00185548      -0.01329086       0.00641026       1.00000000       1.50000000       2.00000000       0.02873745       0.02293261       0.03514842      -0.01007499
X       11.98856309      11.35709711      11.83079878       0.89547344      -0.30669747       0.32258268      -0.00209446      -0.07397514       0.11584031       0.49440253       0.00385934      -0.00399148       0.00019317       1.00000000       1.50000000       2.00000000      -0.02873745      -0.02293261      -0.03514842      -0.01007499
2
Properties=species:S:1:pos:R:3:quaternions:R:4:old_torques:R:3:torques:R:3:c_diameter[1]:R:1:c_diameter[2]:R:1:c_diameter[3]:R:1:forces:R:3:energies:R:1 separation_distance=2.796406574109269 old_energy=-0.6451539185678158 distance=2.7964065745102045 gb_cutoff=5.0 gb_epsilon=1.0 gb_sigma=1.0 energy=-0.00846891595607302 pbc="F F F"
X       10.00000000      10.00000000      10.00000000       0.64136063      -0.28580517       0.06511091       0.70903633      -0.01901356      -0.19800334       0.62092710      -0.00642063       0.00894129      -0.00147366       1.00000000       1.50000000       2.00000000       0.02715157       0.02396007       0.01984220      -0.00846892
X       11.75449436      11.48518686      11.59243815       0.46204943       0.07540425       0.33826424      -0.81633439      -0.14271690      -0.17187673       0.45187504      -0.00226492      -0.00051713       0.00318632       1.00000000       1.50000000       2.00000000      -0.02715157      -0.02396007      -0.01984220      -0.00846892
2
Properties=species:S:1:pos:R:3:quaternions:R:4:old_torques:R:3:torques:R:3:c_diameter[1]:R:1:c_diameter[2]:R:1:c_diameter[3]:R:1:forces:R:3:energies:R:1 separation_distance=2.844236953104318 old_energy=-0.3785603367700211 distance=2.844236957584784 gb_cutoff=5.0 gb_epsilon=1.0 gb_sigma=1.0 energy=-0.00929174768528408 pbc="F F F"
X       10.00000000      10.00000000      10.00000000       0.22093298       0.42828634      -0.75305459       0.44796005      -0.13841442       0.23217493       0.52603138      -0.00450142       0.01275912      -0.00910071       1.00000000       1.50000000       2.00000000       0.03593713       0.02165033       0.01826242      -0.00929175
X       11.92529207      11.45761355      11.50276314       0.12206328       0.17148909      -0.70052625      -0.68187611       0.10278896       0.95169185      -0.12046602      -0.00141435       0.00608538      -0.00159852       1.00000000       1.50000000       2.00000000      -0.03593713      -0.02165033      -0.01826242      -0.00929175
2
Properties=species:S:1:pos:R:3:quaternions:R:4:old_torques:R:3:torques:R:3:c_diameter[1]:R:1:c_diameter[2]:R:1:c_diameter[3]:R:1:forces:R:3:energies:R:1 separation_distance=2.7432709655805025 old_energy=-0.23059788201092943 distance=2.7432709705156535 gb_cutoff=5.0 gb_epsilon=1.0 gb_sigma=1.0 energy=-0.009620814859883768 pbc="F F F"
X       10.00000000      10.00000000      10.00000000       0.26350462      -0.31287960       0.25636216       0.87575688       0.02051908       0.15501257      -0.06711136       0.00917120       0.00316922      -0.01207370       1.00000000       1.50000000       2.00000000       0.03525372       0.01837897       0.02563917      -0.00962081
X       11.98813440      11.15114486      11.49924072       0.17909952       0.75834289       0.57165856       0.25699400       0.01344679      -0.01535636       0.29315585      -0.00721130      -0.00128951       0.00803142       1.00000000       1.50000000       2.00000000      -0.03525372      -0.01837897      -0.02563917      -0.00962081
2
Properties=species:S:1:pos:R:3:quaternions:R:4:old_torques:R:3:torques:R:3:c_diameter[1]:R:1:c_diameter[2]:R:1:c_diameter[3]:R:1:forces:R:3:energies:R:1 separation_distance=2.705955253743623 old_energy=-0.607138548955654 distance=2.7059552511339255 gb_cutoff=5.0 gb_epsilon=1.0 gb_sigma=1.0 energy=-0.03716495745045384 pbc="F F F"
X       10.00000000      10.00000000      10.00000000       0.64344812      -0.08266242       0.14070091       0.74789351      -0.86906918      -3.46662400       1.73459243      -0.07509030       0.04499147       0.03208386       1.00000000       1.50000000       2.00000000       0.13762467       0.17519616       0.07505458      -0.03716496
X       11.69237426      11.44153263      11.54274005       0.29772764       0.69607619      -0.64902417      -0.07485872       0.49694722      -1.39523785      -2.10715426      -0.08699820       0.04030717       0.06602316       1.00000000       1.50000000       2.00000000      -0.13762467      -0.17519616      -0.07505458      -0.03716496
2
Properties=species:S:1:pos:R:3:quaternions:R:4:old_torques:R:3:torques:R:3:c_diameter[1]:R:1:c_diameter[2]:R:1:c_diameter[3]:R:1:forces:R:3:energies:R:1 separation_distance=2.93968791802368 old_energy=-0.34250774184764715 distance=2.93968792277281 gb_cutoff=5.0 gb_epsilon=1.0 gb_sigma=1.0 energy=-0.0049143241571641474 pbc="F F F"
X       10.00000000      10.00000000      10.00000000       0.90916454       0.37962688       0.05064858      -0.16351755      -0.15425766      -0.72465123      -0.32652325       0.00033201       0.00211797      -0.00342068       1.00000000       1.50000000       2.00000000       0.01540200       0.01119087       0.01055543      -0.00491432
X       11.94793341      11.58381055      11.52933471       0.24043271       0.28607153      -0.31705761      -0.87168209      -0.15169330       0.31455125       0.52440088      -0.00072879       0.00087555       0.00082590       1.00000000       1.50000000       2.00000000      -0.01540200      -0.01119087      -0.01055543      -0.00491432
2
Properties=species:S:1:pos:R:3:quaternions:R:4:old_torques:R:3:torques:R:3:c_diameter[1]:R:1:c_diameter[2]:R:1:c_diameter[3]:R:1:forces:R:3:energies:R:1 separation_distance=2.57443337791261 old_energy=-0.632117259697585 distance=2.5744333780795428 gb_cutoff=5.0 gb_epsilon=1.0 gb_sigma=1.0 energy=-0.02122551393348937 pbc="F F F"
X       10.00000000      10.00000000      10.00000000       0.03233972       0.99630332       0.06920078       0.03930773      -0.58301194      -3.60529013       1.70893569      -0.01546975       0.03470446      -0.02205575       1.00000000       1.50000000       2.00000000       0.08316896       0.06698556       0.05360261      -0.02122551
X       11.59490061      11.67528368      11.13023177       0.26172231      -0.86189150       0.15119786      -0.40716543       0.09190517       0.22456226       2.57564329       0.02956013      -0.02619510      -0.01044055       1.00000000       1.50000000       2.00000000      -0.08316896      -0.06698556      -0.05360261      -0.02122551
2
Properties=species:S:1:pos:R:3:quaternions:R:4:old_torques:R:3:torques:R:3:c_diameter[1]:R:1:c_diameter[2]:R:1:c_diameter[3]:R:1:forces:R:3:energies:R:1 separation_distance=2.9909600230000906 old_energy=-0.4402310380565222 distance=2.990960022800463 gb_cutoff=5.0 gb_epsilon=1.0 gb_sigma=1.0 energy=-0.013943990930645382 pbc="F F F"
X       10.00000000      10.00000000      10.00000000       0.00392620      -0.82742135       0.48396399       0.28484618       0.22813612      -0.64159009       0.45588915      -0.01521646      -0.00728716       0.02007307       1.00000000       1.50000000       2.00000000       0.02591248       0.05311408       0.04413775      -0.01394399
X       11.28387697      11.96386982      11.85491701       0.74446928      -0.29574024       0.37634093       0.46547900       0.04496240       0.03628399      -0.57167152       0.00337504      -0.00131478      -0.00276986       1.00000000       1.50000000       2.00000000      -0.02591248      -0.05311408      -0.04413775      -0.01394399
2
Properties=species:S:1:pos:R:3:quaternions:R:4:old_torques:R:3:torques:R:3:c_diameter[1]:R:1:c_diameter[2]:R:1:c_diameter[3]:R:1:forces:R:3:energies:R:1 separation_distance=2.7519170246356603 old_energy=-0.7399451289274529 distance=2.7519170296308215 gb_cutoff=5.0 gb_epsilon=1.0 gb_sigma=1.0 energy=-0.006043705698880666 pbc="F F F"
X       10.00000000      10.00000000      10.00000000       0.26285812      -0.45068921       0.83038725       0.19555526       0.00579627       4.89696069       0.12831535       0.00200047      -0.00307747       0.00131028       1.00000000       1.50000000       2.00000000       0.01781102       0.01483041       0.01431155      -0.00604371
X       11.88878914      11.30691221      11.51575176       0.18169067      -0.85291152      -0.48522982      -0.06389419       0.01294927      -0.66786000      -0.46043286      -0.00577575       0.00304305       0.00342381       1.00000000       1.50000000       2.00000000      -0.01781102      -0.01483041      -0.01431155      -0.00604371
2
Properties=species:S:1:pos:R:3:quaternions:R:4:old_torques:R:3:torques:R:3:c_diameter[1]:R:1:c_diameter[2]:R:1:c_diameter[3]:R:1:forces:R:3:energies:R:1 separation_distance=2.9615178718572057 old_energy=-0.25601631632741134 distance=2.9615178643796765 gb_cutoff=5.0 gb_epsilon=1.0 gb_sigma=1.0 energy=-0.010738578807731441 pbc="F F F"
X       10.00000000      10.00000000      10.00000000       0.79626427      -0.22058047      -0.02014753      -0.56294009       0.01461609      -0.64878478       0.06822012      -0.01566964       0.00802320       0.00310961       1.00000000       1.50000000       2.00000000       0.02803408       0.03562361       0.03081125      -0.01073858
X       11.70349473      11.62324084      11.79827221       0.00751823      -0.72326352       0.36788671       0.58437378       0.11140834      -0.28280972       0.36941767       0.00162278      -0.01009709       0.01206895       1.00000000       1.50000000       2.00000000      -0.02803408      -0.03562361      -0.03081125      -0.01073858
2
Properties=species:S:1:pos:R:3:quaternions:R:4:old_torques:R:3:torques:R:3:c_diameter[1]:R:1:c_diameter[2]:R:1:c_diameter[3]:R:1:forces:R:3:energies:R:1 separation_distance=2.7778262436553507 old_energy=-0.6953830763864183 distance=2.777826239385474 gb_cutoff=5.0 gb_epsilon=1.0 gb_sigma=1.0 energy=-0.010264242477513612 pbc="F F F"
X       10.00000000      10.00000000      10.00000000       0.04154810      -0.73225348      -0.04299275       0.67840269       0.20619935      -0.26606609       0.24911779       0.01226123      -0.01196483       0.00330810       1.00000000       1.50000000       2.00000000       0.01468171       0.02798605       0.04065343      -0.01026424
X       11.24419418      11.74240963      11.76983280       0.64290138      -0.06392905      -0.76211589      -0.04207442       0.04500217       0.08373222      -0.28587463       0.00904308      -0.01263177       0.00593043       1.00000000       1.50000000       2.00000000      -0.01468171      -0.02798605      -0.04065343      -0.01026424
2
Properties=species:S:1:pos:R:3:quaternions:R:4:old_torques:R:3:torques:R:3:c_diameter[1]:R:1:c_diameter[2]:R:1:c_diameter[3]:R:1:forces:R:3:energies:R:1 separation_distance=2.742002248389839 old_energy=-0.6574868145907321 distance=2.74200224431414 gb_cutoff=5.0 gb_epsilon=1.0 gb_sigma=1.0 energy=-0.015982877263734107 pbc="F F F"
X       10.00000000      10.00000000      10.00000000       0.60301668       0.08584148      -0.73634718       0.29460983       0.00347444       0.33318011      -0.08490814       0.01978640      -0.03846971       0.01204718       1.00000000       1.50000000       2.00000000       0.03523013       0.04349912       0.06687191      -0.01598288
X       11.18400213      11.71530259      11.78169927       0.76575508      -0.62457218      -0.14934137      -0.03501294      -0.33898778       0.19874536       0.26190717       0.01741681       0.02206272      -0.02097446       1.00000000       1.50000000       2.00000000      -0.03523013      -0.04349912      -0.06687191      -0.01598288
2
Properties=species:S:1:pos:R:3:quaternions:R:4:old_torques:R:3:torques:R:3:c_diameter[1]:R:1:c_diameter[2]:R:1:c_diameter[3]:R:1:forces:R:3:energies:R:1 separation_distance=3.1611117287194532 old_energy=-0.4123520692916593 distance=3.1611117232913184 gb_cutoff=5.0 gb_epsilon=1.0 gb_sigma=1.0 energy=-0.004801170346467326 pbc="F F F"
X       10.00000000      10.00000000      10.00000000       0.25475317       0.47837224       0.33387593      -0.77122480      -1.52709151      -0.06403168       0.03679062       0.00738818      -0.00357362      -0.00075065       1.00000000       1.50000000       2.00000000       0.00981364       0.01263394       0.01403255      -0.00480117
X       11.61716352      11.97570019      11.86387184       0.13077282       0.25579614      -0.28814603       0.91347615       0.92487413      -0.74813694      -0.94640431      -0.00321212      -0.00082793       0.00179299       1.00000000       1.50000000       2.00000000      -0.00981364      -0.01263394      -0.01403255      -0.00480117
2
Properties=species:S:1:pos:R:3:quaternions:R:4:old_torques:R:3:torques:R:3:c_diameter[1]:R:1:c_diameter[2]:R:1:c_diameter[3]:R:1:forces:R:3:energies:R:1 separation_distance=3.276744339787011 old_energy=-0.10010491385091803 distance=3.2767443405236776 gb_cutoff=5.0 gb_epsilon=1.0 gb_sigma=1.0 energy=-0.0024801604248476006 pbc="F F F"
X       10.00000000      10.00000000      10.00000000       0.05540232      -0.98626315      -0.14608843       0.05360744       0.03699803       0.30439754      -0.04524196      -0.00183465       0.00283138      -0.00085655       1.00000000       1.50000000       2.00000000       0.00674971       0.00547153       0.00440229      -0.00248016
X       11.94709566      11.89585038      11.83074392       0.15222930       0.96155893       0.13940832       0.18109661      -0.01466214      -0.09852532      -0.06211172       0.00016377       0.00095394      -0.00128631       1.00000000       1.50000000       2.00000000      -0.00674971      -0.00547153      -0.00440229      -0.00248016
2
Properties=species:S:1:pos:R:3:quaternions:R:4:old_torques:R:3:torques:R:3:c_diameter[1]:R:1:c_diameter[2]:R:1:c_diameter[3]:R:1:forces:R:3:energies:R:1 separation_distance=2.6482477281619206 old_energy=-0.7596385363136766 distance=2.6482477256960615 gb_cutoff=5.0 gb_epsilon=1.0 gb_sigma=1.0 energy=-0.013305386040809341 pbc="F F F"
X       10.00000000      10.00000000      10.00000000       0.10687382      -0.46971436       0.08455875       0.87223634       0.00304758      -0.53037516      -0.26865632       0.01086166       0.00120175      -0.00916306       1.00000000       1.50000000       2.00000000       0.04238673       0.02615442       0.04898736      -0.01330539
X       11.88143128      11.16122239      11.45773623       0.71492132      -0.04515973       0.69713509      -0.02916800       0.50325622      -5.84688876      -0.83030767       0.00789730      -0.03157942       0.00915039       1.00000000       1.50000000       2.00000000      -0.04238673      -0.02615442      -0.04898736      -0.01330539
2
Properties=species:S:1:pos:R:3:quaternions:R:4:old_torques:R:3:torques:R:3:c_diameter[1]:R:1:c_diameter[2]:R:1:c_diameter[3]:R:1:forces:R:3:energies:R:1 separation_distance=2.9218288914574386 old_energy=-0.18177082591304253 distance=2.9218288951269815 gb_cutoff=5.0 gb_epsilon=1.0 gb_sigma=1.0 energy=-0.007236290354107811 pbc="F F F"
X       10.00000000      10.00000000      10.00000000       0.13428250      -0.17045601      -0.43580986       0.87348883       0.06624010      -0.21241765       0.20530865       0.00498073      -0.00013708      -0.00851605       1.00000000       1.50000000       2.00000000       0.02344916       0.01394418       0.02079187      -0.00723629
X       11.84080252      11.30123782      11.85884650       0.31761549       0.75954516       0.54933784       0.14296674      -0.06246189       0.29743989       0.15719572      -0.00384565       0.00545173       0.00367161       1.00000000       1.50000000       2.00000000      -0.02344916      -0.01394418      -0.02079187      -0.00723629
2
Properties=species:S:1:pos:R:3:quaternions:R:4:old_torques:R:3:torques:R:3:c_diameter[1]:R:1:c_diameter[2]:R:1:c_diameter[3]:R:1:forces:R:3:energies:R:1 separation_distance=3.0920917338429006 old_energy=-0.5721719304016097 distance=3.0920917365619123 gb_cutoff=5.0 gb_epsilon=1.0 gb_sigma=1.0 energy=-0.004761871326474932 pbc="F F F"
X       10.00000000      10.00000000      10.00000000       0.73610065       0.30216399      -0.60516358       0.02509585       0.73422681      -5.88217777      -0.70616061       0.00691426      -0.00677989      -0.00123078       1.00000000       1.50000000       2.00000000       0.01147964       0.01040509       0.01420286      -0.00476187
X       11.74488958      11.70540617      11.89946873       0.26850673       0.33254527      -0.35919212      -0.82963775       0.30660969      -5.38424266      -0.52789869      -0.00245676       0.00380270      -0.00019094       1.00000000       1.50000000       2.00000000      -0.01147964      -0.01040509      -0.01420286      -0.00476187
2
Properties=species:S:1:pos:R:3:quaternions:R:4:old_torques:R:3:torques:R:3:c_diameter[1]:R:1:c_diameter[2]:R:1:c_diameter[3]:R:1:forces:R:3:energies:R:1 separation_distance=3.0223903583656377 old_energy=-0.3298831584153487 distance=3.0223903577125895 gb_cutoff=5.0 gb_epsilon=1.0 gb_sigma=1.0 energy=-0.010160534518526996 pbc="F F F"
X       10.00000000      10.00000000      10.00000000       0.27748469      -0.23704247      -0.73414328       0.57257903      -0.07776129      -0.95442319      -0.13485390       0.00716471      -0.01267270       0.00996500       1.00000000       1.50000000       2.00000000       0.01983792       0.03061050       0.03555373      -0.01016053
X       11.67110120      11.69119199      11.86604767       0.76223792       0.32623379       0.21458976      -0.51625198      -0.06970452      -0.09634658      -0.45013837      -0.00415719      -0.00972267       0.00763852       1.00000000       1.50000000       2.00000000      -0.01983792      -0.03061050      -0.03555373      -0.01016053
2
Properties=species:S:1:pos:R:3:quaternions:R:4:old_torques:R:3:torques:R:3:c_diameter[1]:R:1:c_diameter[2]:R:1:c_diameter[3]:R:1:forces:R:3:energies:R:1 separation_distance=2.7663314105689967 old_energy=-0.28344611651683854 distance=2.766331408914413 gb_cutoff=5.0 gb_epsilon=1.0 gb_sigma=1.0 energy=-0.01018338190035492 pbc="F F F"
X       10.00000000      10.00000000      10.00000000       0.32333819      -0.26546523      -0.48866407       0.76562919       0.01386172       0.00134388       0.08464988       0.00450159      -0.00760159       0.00033001       1.00000000       1.50000000       2.00000000       0.02430419       0.02577924       0.03633519      -0.01018338
X       11.57757450      11.32173222      11.84847832       0.32560821       0.52791844      -0.24357411      -0.74562261      -0.08360629       0.14457874       0.42602815      -0.00412856      -0.00479411       0.00821503       1.00000000       1.50000000       2.00000000      -0.02430419      -0.02577924      -0.03633519      -0.01018338
2
Properties=species:S:1:pos:R:3:quaternions:R:4:old_torques:R:3:torques:R:3:c_diameter[1]:R:1:c_diameter[2]:R:1:c_diameter[3]:R:1:forces:R:3:energies:R:1 separation_distance=2.6728636871697344 old_energy=-0.3445635724552466 distance=2.672863684777927 gb_cutoff=5.0 gb_epsilon=1.0 gb_sigma=1.0 energy=-0.011760150407430139 pbc="F F F"
X       10.00000000      10.00000000      10.00000000       0.64206528      -0.19513299      -0.22740241       0.70566524       0.07224721       0.26381446      -0.40646987      -0.00925372      -0.00113148       0.01064032       1.00000000       1.50000000       2.00000000       0.03269428       0.03762949       0.03351141      -0.01176015
X       11.30815376      11.46339799      11.81422169       0.24862744       0.90460822       0.31133997       0.15144564       0.03513980       0.15143906      -0.36134545      -0.00997400       0.01660808      -0.00925990       1.00000000       1.50000000       2.00000000      -0.03269428      -0.03762949      -0.03351141      -0.01176015
2
Properties=species:S:1:pos:R:3:quaternions:R:4:old_torques:R:3:torques:R:3:c_diameter[1]:R:1:c_diameter[2]:R:1:c_diameter[3]:R:1:forces:R:3:energies:R:1 separation_distance=2.3860542942502563 old_energy=-0.8493827569118532 distance=2.3860542905633912 gb_cutoff=5.0 gb_epsilon=1.0 gb_sigma=1.0 energy=-0.03522771782929463 pbc="F F F"
X       10.00000000      10.00000000      10.00000000       0.23828669       0.14354809      -0.95091889      -0.13552364      -0.02202348      -0.34703411      -0.04875190      -0.06722045       0.08460280       0.02304516       1.00000000       1.50000000       2.00000000       0.15464789       0.11049130       0.10928698      -0.03522772
X       11.31790891      11.06166023      11.68203708       0.09675456       0.22240122      -0.56324117      -0.78989597       0.05776316       0.73122720      -0.09335564      -0.00260437       0.03149040      -0.04161121       1.00000000       1.50000000       2.00000000      -0.15464789      -0.11049130      -0.10928698      -0.03522772
2
Properties=species:S:1:pos:R:3:quaternions:R:4:old_torques:R:3:torques:R:3:c_diameter[1]:R:1:c_diameter[2]:R:1:c_diameter[3]:R:1:forces:R:3:energies:R:1 separation_distance=2.901068562658447 old_energy=-0.6814522132953951 distance=2.9010685585248375 gb_cutoff=5.0 gb_epsilon=1.0 gb_sigma=1.0 energy=-0.012349179743988704 pbc="F F F"
X       10.00000000      10.00000000      10.00000000       0.86994013       0.04667232       0.47263297      -0.13283048       0.02039355      -0.04795020      -0.01176269      -0.00656254      -0.01094268       0.01807157       1.00000000       1.50000000       2.00000000       0.03355349       0.03846502       0.03940460      -0.01234918
X       11.72676707      11.40732020      11.85847360       0.15437406      -0.78688291       0.52887502      -0.27798407       0.04816451       0.09206423      -0.02328219      -0.00946880       0.00525838       0.00112807       1.00000000       1.50000000       2.00000000      -0.03355349      -0.03846502      -0.03940460      -0.01234918
2
Properties=species:S:1:pos:R:3:quaternions:R:4:old_torques:R:3:torques:R:3:c_diameter[1]:R:1:c_diameter[2]:R:1:c_diameter[3]:R:1:forces:R:3:energies:R:1 separation_distance=2.6906873525815973 old_energy=-0.5815896507970082 distance=2.6906873545554655 gb_cutoff=5.0 gb_epsilon=1.0 gb_sigma=1.0 energy=-0.015585535222486036 pbc="F F F"
X       10.00000000      10.00000000      10.00000000       0.33649095       0.00160880      -0.51803509       0.78639106      -0.45807034       2.34948770      -2.55091078       0.01048471      -0.00393581      -0.00665142       1.00000000       1.50000000       2.00000000       0.05712192       0.03674469       0.05016019      -0.01558554
X       11.81518624      11.44081490      11.36709538       0.53050806       0.37379569       0.72940862      -0.21633548       0.96057736     -13.84466779      -1.07195219       0.01155334      -0.00902316      -0.00895224       1.00000000       1.50000000       2.00000000      -0.05712192      -0.03674469      -0.05016019      -0.01558554
2
Properties=species:S:1:pos:R:3:quaternions:R:4:old_torques:R:3:torques:R:3:c_diameter[1]:R:1:c_diameter[2]:R:1:c_diameter[3]:R:1:forces:R:3:energies:R:1 separation_distance=3.2881562284217507 old_energy=-0.21270775550244964 distance=3.288156230278883 gb_cutoff=5.0 gb_epsilon=1.0 gb_sigma=1.0 energy=-0.004932387332862114 pbc="F F F"
X       10.00000000      10.00000000      10.00000000       0.66879048       0.68083251       0.20675647      -0.21549513      -0.13010021      -0.21829087      -0.26604352       0.00456435       0.00169148      -0.00277412       1.00000000       1.50000000       2.00000000       0.01295449       0.01151999       0.01321854      -0.00493239
X       11.95429602      11.95004290      11.78606583       0.34534314      -0.67116390       0.07430053       0.65173351      -0.05978800      -0.73321966      -0.04083329       0.00063692      -0.00438685       0.00002578       1.00000000       1.50000000       2.00000000      -0.01295449      -0.01151999      -0.01321854      -0.00493239
2
Properties=species:S:1:pos:R:3:quaternions:R:4:old_torques:R:3:torques:R:3:c_diameter[1]:R:1:c_diameter[2]:R:1:c_diameter[3]:R:1:forces:R:3:energies:R:1 separation_distance=2.4933774138669578 old_energy=-0.4235376138171428 distance=2.4933774102797073 gb_cutoff=5.0 gb_epsilon=1.0 gb_sigma=1.0 energy=-0.04525301440542456 pbc="F F F"
X       10.00000000      10.00000000      10.00000000       0.72405626      -0.53208208       0.22276829      -0.37816066      -0.01168439       0.37623221      -0.04880224       0.07356497      -0.03875502      -0.03397611       1.00000000       1.50000000       2.00000000       0.15891509       0.07826739       0.23009458      -0.04525301
X       11.33471158      11.21803531      11.71809950       0.49940315      -0.77910830      -0.06791557      -0.37279246      -0.00169908       0.13226678       0.27655577       0.07222718       0.00467706      -0.05512368       1.00000000       1.50000000       2.00000000      -0.15891509      -0.07826739      -0.23009458      -0.04525301
2
Properties=species:S:1:pos:R:3:quaternions:R:4:old_torques:R:3:torques:R:3:c_diameter[1]:R:1:c_diameter[2]:R:1:c_diameter[3]:R:1:forces:R:3:energies:R:1 separation_distance=2.6684228262870335 old_energy=-0.6407567667280456 distance=2.668422827822355 gb_cutoff=5.0 gb_epsilon=1.0 gb_sigma=1.0 energy=-0.011051873689394745 pbc="F F F"
X       10.00000000      10.00000000      10.00000000       0.03195461      -0.42028825       0.21111149       0.88191192       0.05456100      -0.43681409       0.41895517       0.00674658       0.00044535      -0.00821110       1.00000000       1.50000000       2.00000000       0.03171843       0.03296763       0.03270981      -0.01105187
X       11.28517121      11.74527869      11.55654028       0.87505523       0.45210107       0.14839989      -0.08865916      -0.24389763      -1.40722377      -0.31590559      -0.00097428       0.00688795      -0.00477736       1.00000000       1.50000000       2.00000000      -0.03171843      -0.03296763      -0.03270981      -0.01105187
2
Properties=species:S:1:pos:R:3:quaternions:R:4:old_torques:R:3:torques:R:3:c_diameter[1]:R:1:c_diameter[2]:R:1:c_diameter[3]:R:1:forces:R:3:energies:R:1 separation_distance=2.840766934880159 old_energy=-0.5078553309361952 distance=2.840766937179889 gb_cutoff=5.0 gb_epsilon=1.0 gb_sigma=1.0 energy=-0.031037489820504027 pbc="F F F"
X       10.00000000      10.00000000      10.00000000       0.58515580      -0.53506621      -0.03981665      -0.60803904       0.10176912       1.05609821       0.73916307       0.01477620      -0.02009554       0.02448244       1.00000000       1.50000000       2.00000000       0.05554077       0.13104073       0.11820949      -0.03103749
X       11.08081720      11.80198439      11.91171212       0.07806483      -0.25820545      -0.96283966       0.01325217       3.47980876       0.33503865       0.27285319      -0.05227670      -0.00148935       0.01706504       1.00000000       1.50000000       2.00000000      -0.05554077      -0.13104073      -0.11820949      -0.03103749
2
Properties=species:S:1:pos:R:3:quaternions:R:4:old_torques:R:3:torques:R:3:c_diameter[1]:R:1:c_diameter[2]:R:1:c_diameter[3]:R:1:forces:R:3:energies:R:1 separation_distance=3.396645670557967 old_energy=-0.3347884233480018 distance=3.396645673313827 gb_cutoff=5.0 gb_epsilon=1.0 gb_sigma=1.0 energy=-0.002008279229008919 pbc="F F F"
X       10.00000000      10.00000000      10.00000000       0.45079968       0.33559303      -0.09450832       0.82172084      -0.36330469       1.07719190       0.28428209      -0.00091141      -0.00132115       0.00187599       1.00000000       1.50000000       2.00000000       0.00375404       0.00504920       0.00429743      -0.00200828
X       11.99443156      11.98252448      11.90500427       0.78361708       0.02673510      -0.30122292       0.54267326       0.19620687       0.38636271      -0.46138192      -0.00018759      -0.00009830       0.00075181       1.00000000       1.50000000       2.00000000      -0.00375404      -0.00504920      -0.00429743      -0.00200828
2
Properties=species:S:1:pos:R:3:quaternions:R:4:old_torques:R:3:torques:R:3:c_diameter[1]:R:1:c_diameter[2]:R:1:c_diameter[3]:R:1:forces:R:3:energies:R:1 separation_distance=2.7177094152134353 old_energy=-0.5734569691152185 distance=2.7177094145307987 gb_cutoff=5.0 gb_epsilon=1.0 gb_sigma=1.0 energy=-0.028180418585645614 pbc="F F F"
X       10.00000000      10.00000000      10.00000000       0.48890299      -0.43721758      -0.24176484      -0.71509749       0.53452175       5.89146372       1.38136480       0.04092770      -0.01450386      -0.02105634       1.00000000       1.50000000       2.00000000       0.08546156       0.09068217       0.11436404      -0.02818042
X       11.52682546      11.79809157      11.34967225       0.52427034       0.51133268       0.26994280      -0.62514829       0.14611712       0.22634343       3.03715036       0.04231810      -0.04476496       0.00584447       1.00000000       1.50000000       2.00000000      -0.08546156      -0.09068217      -0.11436404      -0.02818042
2
Properties=species:S:1:pos:R:3:quaternions:R:4:old_torques:R:3:torques:R:3:c_diameter[1]:R:1:c_diameter[2]:R:1:c_diameter[3]:R:1:forces:R:3:energies:R:1 separation_distance=2.3294741453313965 old_energy=-0.845821140078984 distance=2.3294741475846648 gb_cutoff=5.0 gb_epsilon=1.0 gb_sigma=1.0 energy=-0.058262582871803636 pbc="F F F"
X       10.00000000      10.00000000      10.00000000       0.41004447      -0.04835418      -0.71622882       0.56262037      -0.01184742      -0.43061079      -0.25320024       0.07919350      -0.08979831       0.00429764       1.00000000       1.50000000       2.00000000       0.22937821       0.22455002       0.21719422      -0.05826258
X       11.32466955      11.62736073      11.01163108       0.04584084      -0.38557201       0.36553863       0.84593992      -0.06905366       0.31182117       0.27035995       0.04709806       0.03413387      -0.08012416       1.00000000       1.50000000       2.00000000      -0.22937821      -0.22455002      -0.21719422      -0.05826258
2
Properties=species:S:1:pos:R:3:quaternions:R:4:old_torques:R:3:torques:R:3:c_diameter[1]:R:1:c_diameter[2]:R:1:c_diameter[3]:R:1:forces:R:3:energies:R:1 separation_distance=2.6662039244411675 old_energy=-0.37547052682011267 distance=2.6662039232114063 gb_cutoff=5.0 gb_epsilon=1.0 gb_sigma=1.0 energy=-0.03025641546735692 pbc="F F F"
X       10.00000000      10.00000000      10.00000000       0.41861133       0.11350643      -0.61595256       0.65763461       0.01326275      -0.02775118       0.35266350       0.01245756      -0.03488912       0.00789022       1.00000000       1.50000000       2.00000000       0.08373386       0.05274743       0.15369105      -0.03025642
X       11.47191863      11.16613157      11.89267960       0.43917855       0.48822068      -0.72184797       0.21839934      -0.13552061       0.39396593       0.45353589       0.06693244      -0.03285023      -0.02789499       1.00000000       1.50000000       2.00000000      -0.08373386      -0.05274743      -0.15369105      -0.03025642
2
Properties=species:S:1:pos:R:3:quaternions:R:4:old_torques:R:3:torques:R:3:c_diameter[1]:R:1:c_diameter[2]:R:1:c_diameter[3]:R:1:forces:R:3:energies:R:1 separation_distance=3.117610103813841 old_energy=-0.6207360990894291 distance=3.1176101103010163 gb_cutoff=5.0 gb_epsilon=1.0 gb_sigma=1.0 energy=-0.010723344641338652 pbc="F F F"
X       10.00000000      10.00000000      10.00000000       0.01741259      -0.52008388      -0.82125388       0.23399065      -0.43995439       0.42890343       0.18285139      -0.01570206       0.00829947       0.00732866       1.00000000       1.50000000       2.00000000       0.03368357       0.03941696       0.01488676      -0.01072334
X       11.95508360      11.95591428      11.43928463       0.58592004      -0.14975627       0.16641216       0.77883102       0.01940797      -0.00881813      -0.18115708      -0.01191294       0.01107592       0.00385261       1.00000000       1.50000000       2.00000000      -0.03368357      -0.03941696      -0.01488676      -0.01072334
